\ SCIP STATISTICS
\   Problem name     : GroupAssignment
\   Variables        : 504 (0 binary, 504 integer, 0 implicit integer, 0 continuous)
\   Constraints      : 811
Maximize
 Obj: +5 assign_0_3 +4 assign_1_0 +5 assign_1_2 +2 assign_1_6 +3 assign_4_2 +2 assign_4_3 +5 assign_4_5
      +4 assign_5_0 +2 assign_5_3 +3 assign_5_5 +3 assign_6_0 +2 assign_6_1 +5 assign_6_5 +4 assign_6_6
      +3 assign_7_3 +4 assign_7_4 +2 assign_7_6 +3 assign_8_0 +2 assign_8_1 +5 assign_8_3 +3 assign_9_0
      +5 assign_9_3 +2 assign_9_5 +5 assign_10_3 +2 assign_11_1 +3 assign_11_4 +4 assign_11_5 +3 assign_12_0
      +5 assign_12_1 +2 assign_12_3 +2 assign_13_1 +5 assign_13_3 +3 assign_13_6 +5 assign_14_1 +3 assign_14_2
      +4 assign_14_6 +5 assign_15_0 +4 assign_15_1 +3 assign_15_3 +2 assign_16_0 +3 assign_16_1 +4 assign_16_2
      +5 assign_16_3 +3 assign_17_0 +2 assign_17_3 +5 assign_17_6 +4 assign_18_0 +5 assign_18_1 +3 assign_18_2
      +2 assign_18_7 +2 assign_19_0 +4 assign_20_0 +3 assign_20_1 +5 assign_20_3 +2 assign_21_1 +3 assign_21_3
      +5 assign_21_6 +2 assign_22_0 +4 assign_22_3 +5 assign_22_6 +3 assign_23_0 +4 assign_23_7 +2 assign_24_0
      +3 assign_24_3 +4 assign_24_4 +5 assign_24_5 +4 assign_25_0 +3 assign_25_1 +5 assign_25_3 +2 assign_26_0
      +5 assign_26_3 +3 assign_26_5 +3 assign_28_0 +4 assign_28_3 +5 assign_28_6 +3 assign_29_0 +5 assign_29_3
      +2 assign_29_6 +2 assign_30_1 +5 assign_30_3 +4 assign_30_6 +3 assign_33_0 +2 assign_33_3 +4 assign_33_6
      +2 assign_34_0 +3 assign_34_3 +5 assign_34_6 +3 assign_35_4 +4 assign_35_5 +2 assign_36_3 +5 assign_36_5
      +5 assign_37_3 +2 assign_37_4 +3 assign_37_6 +4 assign_38_0 +3 assign_38_1 +5 assign_38_3 +2 assign_38_6
      +3 assign_39_0 +4 assign_39_1 +5 assign_39_3 +2 assign_39_6 +2 assign_40_0 +4 assign_40_3 +2 assign_41_4
      +5 assign_41_5 +3 assign_41_6 +4 assign_42_2 +3 assign_42_3 +3 assign_43_0 +4 assign_43_1 +2 assign_43_2
      +5 assign_43_3 +4 assign_44_0 +3 assign_44_1 +5 assign_44_3 +3 assign_45_1 +5 assign_45_3 +4 assign_45_6
      +2 assign_46_4 +4 assign_46_5 +4 assign_47_0 +5 assign_47_1 +3 assign_47_2 +2 assign_47_4 +3 assign_48_0
      +4 assign_48_5 +5 assign_49_1 +2 assign_49_2 +3 assign_49_3 +4 assign_49_6 +4 assign_50_0 +2 assign_50_1
      +3 assign_50_3 +3 assign_51_0 +5 assign_51_1 +4 assign_51_3 +2 assign_52_0 +3 assign_52_1 +5 assign_52_3
      +2 assign_53_0 +3 assign_53_3 +4 assign_53_6 +4 assign_54_0 +2 assign_54_1 +3 assign_54_3 +3 assign_55_3
      +2 assign_55_4 +4 assign_55_5
Subject to
 no_wish_0_0: +1 assign_0_0 = +0
 no_wish_0_1: +1 assign_0_1 = +0
 no_wish_0_2: +1 assign_0_2 = +0
 no_wish_0_4: +1 assign_0_4 = +0
 no_wish_0_5: +1 assign_0_5 = +0
 no_wish_0_6: +1 assign_0_6 = +0
 no_wish_0_7: +1 assign_0_7 = +0
 no_wish_1_1: +1 assign_1_1 = +0
 no_wish_1_3: +1 assign_1_3 = +0
 no_wish_1_4: +1 assign_1_4 = +0
 no_wish_1_5: +1 assign_1_5 = +0
 no_wish_1_7: +1 assign_1_7 = +0
 no_wish_2_0: +1 assign_2_0 = +0
 no_wish_2_1: +1 assign_2_1 = +0
 no_wish_2_2: +1 assign_2_2 = +0
 no_wish_2_3: +1 assign_2_3 = +0
 no_wish_2_4: +1 assign_2_4 = +0
 no_wish_2_5: +1 assign_2_5 = +0
 no_wish_2_6: +1 assign_2_6 = +0
 no_wish_2_7: +1 assign_2_7 = +0
 no_wish_3_0: +1 assign_3_0 = +0
 no_wish_3_1: +1 assign_3_1 = +0
 no_wish_3_2: +1 assign_3_2 = +0
 no_wish_3_3: +1 assign_3_3 = +0
 no_wish_3_4: +1 assign_3_4 = +0
 no_wish_3_5: +1 assign_3_5 = +0
 no_wish_3_6: +1 assign_3_6 = +0
 no_wish_3_7: +1 assign_3_7 = +0
 no_wish_4_0: +1 assign_4_0 = +0
 no_wish_4_1: +1 assign_4_1 = +0
 no_wish_4_4: +1 assign_4_4 = +0
 no_wish_4_6: +1 assign_4_6 = +0
 no_wish_4_7: +1 assign_4_7 = +0
 no_wish_5_1: +1 assign_5_1 = +0
 no_wish_5_2: +1 assign_5_2 = +0
 no_wish_5_4: +1 assign_5_4 = +0
 no_wish_5_6: +1 assign_5_6 = +0
 no_wish_5_7: +1 assign_5_7 = +0
 no_wish_6_2: +1 assign_6_2 = +0
 no_wish_6_3: +1 assign_6_3 = +0
 no_wish_6_4: +1 assign_6_4 = +0
 no_wish_6_7: +1 assign_6_7 = +0
 no_wish_7_0: +1 assign_7_0 = +0
 no_wish_7_1: +1 assign_7_1 = +0
 no_wish_7_2: +1 assign_7_2 = +0
 no_wish_7_5: +1 assign_7_5 = +0
 no_wish_7_7: +1 assign_7_7 = +0
 no_wish_8_2: +1 assign_8_2 = +0
 no_wish_8_4: +1 assign_8_4 = +0
 no_wish_8_5: +1 assign_8_5 = +0
 no_wish_8_6: +1 assign_8_6 = +0
 no_wish_8_7: +1 assign_8_7 = +0
 no_wish_9_1: +1 assign_9_1 = +0
 no_wish_9_2: +1 assign_9_2 = +0
 no_wish_9_4: +1 assign_9_4 = +0
 no_wish_9_6: +1 assign_9_6 = +0
 no_wish_9_7: +1 assign_9_7 = +0
 no_wish_10_0: +1 assign_10_0 = +0
 no_wish_10_1: +1 assign_10_1 = +0
 no_wish_10_2: +1 assign_10_2 = +0
 no_wish_10_4: +1 assign_10_4 = +0
 no_wish_10_5: +1 assign_10_5 = +0
 no_wish_10_6: +1 assign_10_6 = +0
 no_wish_10_7: +1 assign_10_7 = +0
 no_wish_11_0: +1 assign_11_0 = +0
 no_wish_11_2: +1 assign_11_2 = +0
 no_wish_11_3: +1 assign_11_3 = +0
 no_wish_11_6: +1 assign_11_6 = +0
 no_wish_11_7: +1 assign_11_7 = +0
 no_wish_12_2: +1 assign_12_2 = +0
 no_wish_12_4: +1 assign_12_4 = +0
 no_wish_12_5: +1 assign_12_5 = +0
 no_wish_12_6: +1 assign_12_6 = +0
 no_wish_12_7: +1 assign_12_7 = +0
 no_wish_13_0: +1 assign_13_0 = +0
 no_wish_13_2: +1 assign_13_2 = +0
 no_wish_13_4: +1 assign_13_4 = +0
 no_wish_13_5: +1 assign_13_5 = +0
 no_wish_13_7: +1 assign_13_7 = +0
 no_wish_14_0: +1 assign_14_0 = +0
 no_wish_14_3: +1 assign_14_3 = +0
 no_wish_14_4: +1 assign_14_4 = +0
 no_wish_14_5: +1 assign_14_5 = +0
 no_wish_14_7: +1 assign_14_7 = +0
 no_wish_15_2: +1 assign_15_2 = +0
 no_wish_15_4: +1 assign_15_4 = +0
 no_wish_15_5: +1 assign_15_5 = +0
 no_wish_15_6: +1 assign_15_6 = +0
 no_wish_15_7: +1 assign_15_7 = +0
 no_wish_16_4: +1 assign_16_4 = +0
 no_wish_16_5: +1 assign_16_5 = +0
 no_wish_16_6: +1 assign_16_6 = +0
 no_wish_16_7: +1 assign_16_7 = +0
 no_wish_17_1: +1 assign_17_1 = +0
 no_wish_17_2: +1 assign_17_2 = +0
 no_wish_17_4: +1 assign_17_4 = +0
 no_wish_17_5: +1 assign_17_5 = +0
 no_wish_17_7: +1 assign_17_7 = +0
 no_wish_18_3: +1 assign_18_3 = +0
 no_wish_18_4: +1 assign_18_4 = +0
 no_wish_18_5: +1 assign_18_5 = +0
 no_wish_18_6: +1 assign_18_6 = +0
 no_wish_19_1: +1 assign_19_1 = +0
 no_wish_19_2: +1 assign_19_2 = +0
 no_wish_19_3: +1 assign_19_3 = +0
 no_wish_19_4: +1 assign_19_4 = +0
 no_wish_19_5: +1 assign_19_5 = +0
 no_wish_19_6: +1 assign_19_6 = +0
 no_wish_19_7: +1 assign_19_7 = +0
 no_wish_20_2: +1 assign_20_2 = +0
 no_wish_20_4: +1 assign_20_4 = +0
 no_wish_20_5: +1 assign_20_5 = +0
 no_wish_20_6: +1 assign_20_6 = +0
 no_wish_20_7: +1 assign_20_7 = +0
 no_wish_21_0: +1 assign_21_0 = +0
 no_wish_21_2: +1 assign_21_2 = +0
 no_wish_21_4: +1 assign_21_4 = +0
 no_wish_21_5: +1 assign_21_5 = +0
 no_wish_21_7: +1 assign_21_7 = +0
 no_wish_22_1: +1 assign_22_1 = +0
 no_wish_22_2: +1 assign_22_2 = +0
 no_wish_22_4: +1 assign_22_4 = +0
 no_wish_22_5: +1 assign_22_5 = +0
 no_wish_22_7: +1 assign_22_7 = +0
 no_wish_23_1: +1 assign_23_1 = +0
 no_wish_23_2: +1 assign_23_2 = +0
 no_wish_23_3: +1 assign_23_3 = +0
 no_wish_23_4: +1 assign_23_4 = +0
 no_wish_23_5: +1 assign_23_5 = +0
 no_wish_23_6: +1 assign_23_6 = +0
 no_wish_24_1: +1 assign_24_1 = +0
 no_wish_24_2: +1 assign_24_2 = +0
 no_wish_24_6: +1 assign_24_6 = +0
 no_wish_24_7: +1 assign_24_7 = +0
 no_wish_25_2: +1 assign_25_2 = +0
 no_wish_25_4: +1 assign_25_4 = +0
 no_wish_25_5: +1 assign_25_5 = +0
 no_wish_25_6: +1 assign_25_6 = +0
 no_wish_25_7: +1 assign_25_7 = +0
 no_wish_26_1: +1 assign_26_1 = +0
 no_wish_26_2: +1 assign_26_2 = +0
 no_wish_26_4: +1 assign_26_4 = +0
 no_wish_26_6: +1 assign_26_6 = +0
 no_wish_26_7: +1 assign_26_7 = +0
 no_wish_27_0: +1 assign_27_0 = +0
 no_wish_27_1: +1 assign_27_1 = +0
 no_wish_27_2: +1 assign_27_2 = +0
 no_wish_27_3: +1 assign_27_3 = +0
 no_wish_27_4: +1 assign_27_4 = +0
 no_wish_27_5: +1 assign_27_5 = +0
 no_wish_27_6: +1 assign_27_6 = +0
 no_wish_27_7: +1 assign_27_7 = +0
 no_wish_28_1: +1 assign_28_1 = +0
 no_wish_28_2: +1 assign_28_2 = +0
 no_wish_28_4: +1 assign_28_4 = +0
 no_wish_28_5: +1 assign_28_5 = +0
 no_wish_28_7: +1 assign_28_7 = +0
 no_wish_29_1: +1 assign_29_1 = +0
 no_wish_29_2: +1 assign_29_2 = +0
 no_wish_29_4: +1 assign_29_4 = +0
 no_wish_29_5: +1 assign_29_5 = +0
 no_wish_29_7: +1 assign_29_7 = +0
 no_wish_30_0: +1 assign_30_0 = +0
 no_wish_30_2: +1 assign_30_2 = +0
 no_wish_30_4: +1 assign_30_4 = +0
 no_wish_30_5: +1 assign_30_5 = +0
 no_wish_30_7: +1 assign_30_7 = +0
 no_wish_31_0: +1 assign_31_0 = +0
 no_wish_31_1: +1 assign_31_1 = +0
 no_wish_31_2: +1 assign_31_2 = +0
 no_wish_31_3: +1 assign_31_3 = +0
 no_wish_31_4: +1 assign_31_4 = +0
 no_wish_31_5: +1 assign_31_5 = +0
 no_wish_31_6: +1 assign_31_6 = +0
 no_wish_31_7: +1 assign_31_7 = +0
 no_wish_32_0: +1 assign_32_0 = +0
 no_wish_32_1: +1 assign_32_1 = +0
 no_wish_32_2: +1 assign_32_2 = +0
 no_wish_32_3: +1 assign_32_3 = +0
 no_wish_32_4: +1 assign_32_4 = +0
 no_wish_32_5: +1 assign_32_5 = +0
 no_wish_32_6: +1 assign_32_6 = +0
 no_wish_32_7: +1 assign_32_7 = +0
 no_wish_33_1: +1 assign_33_1 = +0
 no_wish_33_2: +1 assign_33_2 = +0
 no_wish_33_4: +1 assign_33_4 = +0
 no_wish_33_5: +1 assign_33_5 = +0
 no_wish_33_7: +1 assign_33_7 = +0
 no_wish_34_1: +1 assign_34_1 = +0
 no_wish_34_2: +1 assign_34_2 = +0
 no_wish_34_4: +1 assign_34_4 = +0
 no_wish_34_5: +1 assign_34_5 = +0
 no_wish_34_7: +1 assign_34_7 = +0
 no_wish_35_0: +1 assign_35_0 = +0
 no_wish_35_1: +1 assign_35_1 = +0
 no_wish_35_2: +1 assign_35_2 = +0
 no_wish_35_3: +1 assign_35_3 = +0
 no_wish_35_6: +1 assign_35_6 = +0
 no_wish_35_7: +1 assign_35_7 = +0
 no_wish_36_0: +1 assign_36_0 = +0
 no_wish_36_1: +1 assign_36_1 = +0
 no_wish_36_2: +1 assign_36_2 = +0
 no_wish_36_4: +1 assign_36_4 = +0
 no_wish_36_6: +1 assign_36_6 = +0
 no_wish_36_7: +1 assign_36_7 = +0
 no_wish_37_0: +1 assign_37_0 = +0
 no_wish_37_1: +1 assign_37_1 = +0
 no_wish_37_2: +1 assign_37_2 = +0
 no_wish_37_5: +1 assign_37_5 = +0
 no_wish_37_7: +1 assign_37_7 = +0
 no_wish_38_2: +1 assign_38_2 = +0
 no_wish_38_4: +1 assign_38_4 = +0
 no_wish_38_5: +1 assign_38_5 = +0
 no_wish_38_7: +1 assign_38_7 = +0
 no_wish_39_2: +1 assign_39_2 = +0
 no_wish_39_4: +1 assign_39_4 = +0
 no_wish_39_5: +1 assign_39_5 = +0
 no_wish_39_7: +1 assign_39_7 = +0
 no_wish_40_1: +1 assign_40_1 = +0
 no_wish_40_2: +1 assign_40_2 = +0
 no_wish_40_4: +1 assign_40_4 = +0
 no_wish_40_5: +1 assign_40_5 = +0
 no_wish_40_6: +1 assign_40_6 = +0
 no_wish_40_7: +1 assign_40_7 = +0
 no_wish_41_0: +1 assign_41_0 = +0
 no_wish_41_1: +1 assign_41_1 = +0
 no_wish_41_2: +1 assign_41_2 = +0
 no_wish_41_3: +1 assign_41_3 = +0
 no_wish_41_7: +1 assign_41_7 = +0
 no_wish_42_0: +1 assign_42_0 = +0
 no_wish_42_1: +1 assign_42_1 = +0
 no_wish_42_4: +1 assign_42_4 = +0
 no_wish_42_5: +1 assign_42_5 = +0
 no_wish_42_6: +1 assign_42_6 = +0
 no_wish_42_7: +1 assign_42_7 = +0
 no_wish_43_4: +1 assign_43_4 = +0
 no_wish_43_5: +1 assign_43_5 = +0
 no_wish_43_6: +1 assign_43_6 = +0
 no_wish_43_7: +1 assign_43_7 = +0
 no_wish_44_2: +1 assign_44_2 = +0
 no_wish_44_4: +1 assign_44_4 = +0
 no_wish_44_5: +1 assign_44_5 = +0
 no_wish_44_6: +1 assign_44_6 = +0
 no_wish_44_7: +1 assign_44_7 = +0
 no_wish_45_0: +1 assign_45_0 = +0
 no_wish_45_2: +1 assign_45_2 = +0
 no_wish_45_4: +1 assign_45_4 = +0
 no_wish_45_5: +1 assign_45_5 = +0
 no_wish_45_7: +1 assign_45_7 = +0
 no_wish_46_0: +1 assign_46_0 = +0
 no_wish_46_1: +1 assign_46_1 = +0
 no_wish_46_2: +1 assign_46_2 = +0
 no_wish_46_3: +1 assign_46_3 = +0
 no_wish_46_6: +1 assign_46_6 = +0
 no_wish_46_7: +1 assign_46_7 = +0
 no_wish_47_3: +1 assign_47_3 = +0
 no_wish_47_5: +1 assign_47_5 = +0
 no_wish_47_6: +1 assign_47_6 = +0
 no_wish_47_7: +1 assign_47_7 = +0
 no_wish_48_1: +1 assign_48_1 = +0
 no_wish_48_2: +1 assign_48_2 = +0
 no_wish_48_3: +1 assign_48_3 = +0
 no_wish_48_4: +1 assign_48_4 = +0
 no_wish_48_6: +1 assign_48_6 = +0
 no_wish_48_7: +1 assign_48_7 = +0
 no_wish_49_0: +1 assign_49_0 = +0
 no_wish_49_4: +1 assign_49_4 = +0
 no_wish_49_5: +1 assign_49_5 = +0
 no_wish_49_7: +1 assign_49_7 = +0
 no_wish_50_2: +1 assign_50_2 = +0
 no_wish_50_4: +1 assign_50_4 = +0
 no_wish_50_5: +1 assign_50_5 = +0
 no_wish_50_6: +1 assign_50_6 = +0
 no_wish_50_7: +1 assign_50_7 = +0
 no_wish_51_2: +1 assign_51_2 = +0
 no_wish_51_4: +1 assign_51_4 = +0
 no_wish_51_5: +1 assign_51_5 = +0
 no_wish_51_6: +1 assign_51_6 = +0
 no_wish_51_7: +1 assign_51_7 = +0
 no_wish_52_2: +1 assign_52_2 = +0
 no_wish_52_4: +1 assign_52_4 = +0
 no_wish_52_5: +1 assign_52_5 = +0
 no_wish_52_6: +1 assign_52_6 = +0
 no_wish_52_7: +1 assign_52_7 = +0
 no_wish_53_1: +1 assign_53_1 = +0
 no_wish_53_2: +1 assign_53_2 = +0
 no_wish_53_4: +1 assign_53_4 = +0
 no_wish_53_5: +1 assign_53_5 = +0
 no_wish_53_7: +1 assign_53_7 = +0
 no_wish_54_2: +1 assign_54_2 = +0
 no_wish_54_4: +1 assign_54_4 = +0
 no_wish_54_5: +1 assign_54_5 = +0
 no_wish_54_6: +1 assign_54_6 = +0
 no_wish_54_7: +1 assign_54_7 = +0
 no_wish_55_0: +1 assign_55_0 = +0
 no_wish_55_1: +1 assign_55_1 = +0
 no_wish_55_2: +1 assign_55_2 = +0
 no_wish_55_6: +1 assign_55_6 = +0
 no_wish_55_7: +1 assign_55_7 = +0
 num_assignments_0: +1 assign_0_0 +1 assign_0_1 +1 assign_0_2 +1 assign_0_3 +1 assign_0_4 +1 assign_0_5
  +1 assign_0_6 +1 assign_0_7 +1 assign_0_none = +2
 num_assignments_1: +1 assign_1_0 +1 assign_1_1 +1 assign_1_2 +1 assign_1_3 +1 assign_1_4 +1 assign_1_5
  +1 assign_1_6 +1 assign_1_7 +1 assign_1_none = +2
 num_assignments_2: +1 assign_2_0 +1 assign_2_1 +1 assign_2_2 +1 assign_2_3 +1 assign_2_4 +1 assign_2_5
  +1 assign_2_6 +1 assign_2_7 +1 assign_2_none = +2
 num_assignments_3: +1 assign_3_0 +1 assign_3_1 +1 assign_3_2 +1 assign_3_3 +1 assign_3_4 +1 assign_3_5
  +1 assign_3_6 +1 assign_3_7 +1 assign_3_none = +2
 num_assignments_4: +1 assign_4_0 +1 assign_4_1 +1 assign_4_2 +1 assign_4_3 +1 assign_4_4 +1 assign_4_5
  +1 assign_4_6 +1 assign_4_7 +1 assign_4_none = +2
 num_assignments_5: +1 assign_5_0 +1 assign_5_1 +1 assign_5_2 +1 assign_5_3 +1 assign_5_4 +1 assign_5_5
  +1 assign_5_6 +1 assign_5_7 +1 assign_5_none = +2
 num_assignments_6: +1 assign_6_0 +1 assign_6_1 +1 assign_6_2 +1 assign_6_3 +1 assign_6_4 +1 assign_6_5
  +1 assign_6_6 +1 assign_6_7 +1 assign_6_none = +2
 num_assignments_7: +1 assign_7_0 +1 assign_7_1 +1 assign_7_2 +1 assign_7_3 +1 assign_7_4 +1 assign_7_5
  +1 assign_7_6 +1 assign_7_7 +1 assign_7_none = +2
 num_assignments_8: +1 assign_8_0 +1 assign_8_1 +1 assign_8_2 +1 assign_8_3 +1 assign_8_4 +1 assign_8_5
  +1 assign_8_6 +1 assign_8_7 +1 assign_8_none = +2
 num_assignments_9: +1 assign_9_0 +1 assign_9_1 +1 assign_9_2 +1 assign_9_3 +1 assign_9_4 +1 assign_9_5
  +1 assign_9_6 +1 assign_9_7 +1 assign_9_none = +2
 num_assignments_10: +1 assign_10_0 +1 assign_10_1 +1 assign_10_2 +1 assign_10_3 +1 assign_10_4 +1 assign_10_5
  +1 assign_10_6 +1 assign_10_7 +1 assign_10_none = +2
 num_assignments_11: +1 assign_11_0 +1 assign_11_1 +1 assign_11_2 +1 assign_11_3 +1 assign_11_4 +1 assign_11_5
  +1 assign_11_6 +1 assign_11_7 +1 assign_11_none = +2
 num_assignments_12: +1 assign_12_0 +1 assign_12_1 +1 assign_12_2 +1 assign_12_3 +1 assign_12_4 +1 assign_12_5
  +1 assign_12_6 +1 assign_12_7 +1 assign_12_none = +2
 num_assignments_13: +1 assign_13_0 +1 assign_13_1 +1 assign_13_2 +1 assign_13_3 +1 assign_13_4 +1 assign_13_5
  +1 assign_13_6 +1 assign_13_7 +1 assign_13_none = +2
 num_assignments_14: +1 assign_14_0 +1 assign_14_1 +1 assign_14_2 +1 assign_14_3 +1 assign_14_4 +1 assign_14_5
  +1 assign_14_6 +1 assign_14_7 +1 assign_14_none = +2
 num_assignments_15: +1 assign_15_0 +1 assign_15_1 +1 assign_15_2 +1 assign_15_3 +1 assign_15_4 +1 assign_15_5
  +1 assign_15_6 +1 assign_15_7 +1 assign_15_none = +2
 num_assignments_16: +1 assign_16_0 +1 assign_16_1 +1 assign_16_2 +1 assign_16_3 +1 assign_16_4 +1 assign_16_5
  +1 assign_16_6 +1 assign_16_7 +1 assign_16_none = +2
 num_assignments_17: +1 assign_17_0 +1 assign_17_1 +1 assign_17_2 +1 assign_17_3 +1 assign_17_4 +1 assign_17_5
  +1 assign_17_6 +1 assign_17_7 +1 assign_17_none = +2
 num_assignments_18: +1 assign_18_0 +1 assign_18_1 +1 assign_18_2 +1 assign_18_3 +1 assign_18_4 +1 assign_18_5
  +1 assign_18_6 +1 assign_18_7 +1 assign_18_none = +2
 num_assignments_19: +1 assign_19_0 +1 assign_19_1 +1 assign_19_2 +1 assign_19_3 +1 assign_19_4 +1 assign_19_5
  +1 assign_19_6 +1 assign_19_7 +1 assign_19_none = +2
 num_assignments_20: +1 assign_20_0 +1 assign_20_1 +1 assign_20_2 +1 assign_20_3 +1 assign_20_4 +1 assign_20_5
  +1 assign_20_6 +1 assign_20_7 +1 assign_20_none = +2
 num_assignments_21: +1 assign_21_0 +1 assign_21_1 +1 assign_21_2 +1 assign_21_3 +1 assign_21_4 +1 assign_21_5
  +1 assign_21_6 +1 assign_21_7 +1 assign_21_none = +2
 num_assignments_22: +1 assign_22_0 +1 assign_22_1 +1 assign_22_2 +1 assign_22_3 +1 assign_22_4 +1 assign_22_5
  +1 assign_22_6 +1 assign_22_7 +1 assign_22_none = +2
 num_assignments_23: +1 assign_23_0 +1 assign_23_1 +1 assign_23_2 +1 assign_23_3 +1 assign_23_4 +1 assign_23_5
  +1 assign_23_6 +1 assign_23_7 +1 assign_23_none = +2
 num_assignments_24: +1 assign_24_0 +1 assign_24_1 +1 assign_24_2 +1 assign_24_3 +1 assign_24_4 +1 assign_24_5
  +1 assign_24_6 +1 assign_24_7 +1 assign_24_none = +2
 num_assignments_25: +1 assign_25_0 +1 assign_25_1 +1 assign_25_2 +1 assign_25_3 +1 assign_25_4 +1 assign_25_5
  +1 assign_25_6 +1 assign_25_7 +1 assign_25_none = +2
 num_assignments_26: +1 assign_26_0 +1 assign_26_1 +1 assign_26_2 +1 assign_26_3 +1 assign_26_4 +1 assign_26_5
  +1 assign_26_6 +1 assign_26_7 +1 assign_26_none = +2
 num_assignments_27: +1 assign_27_0 +1 assign_27_1 +1 assign_27_2 +1 assign_27_3 +1 assign_27_4 +1 assign_27_5
  +1 assign_27_6 +1 assign_27_7 +1 assign_27_none = +2
 num_assignments_28: +1 assign_28_0 +1 assign_28_1 +1 assign_28_2 +1 assign_28_3 +1 assign_28_4 +1 assign_28_5
  +1 assign_28_6 +1 assign_28_7 +1 assign_28_none = +2
 num_assignments_29: +1 assign_29_0 +1 assign_29_1 +1 assign_29_2 +1 assign_29_3 +1 assign_29_4 +1 assign_29_5
  +1 assign_29_6 +1 assign_29_7 +1 assign_29_none = +2
 num_assignments_30: +1 assign_30_0 +1 assign_30_1 +1 assign_30_2 +1 assign_30_3 +1 assign_30_4 +1 assign_30_5
  +1 assign_30_6 +1 assign_30_7 +1 assign_30_none = +2
 num_assignments_31: +1 assign_31_0 +1 assign_31_1 +1 assign_31_2 +1 assign_31_3 +1 assign_31_4 +1 assign_31_5
  +1 assign_31_6 +1 assign_31_7 +1 assign_31_none = +2
 num_assignments_32: +1 assign_32_0 +1 assign_32_1 +1 assign_32_2 +1 assign_32_3 +1 assign_32_4 +1 assign_32_5
  +1 assign_32_6 +1 assign_32_7 +1 assign_32_none = +2
 num_assignments_33: +1 assign_33_0 +1 assign_33_1 +1 assign_33_2 +1 assign_33_3 +1 assign_33_4 +1 assign_33_5
  +1 assign_33_6 +1 assign_33_7 +1 assign_33_none = +2
 num_assignments_34: +1 assign_34_0 +1 assign_34_1 +1 assign_34_2 +1 assign_34_3 +1 assign_34_4 +1 assign_34_5
  +1 assign_34_6 +1 assign_34_7 +1 assign_34_none = +2
 num_assignments_35: +1 assign_35_0 +1 assign_35_1 +1 assign_35_2 +1 assign_35_3 +1 assign_35_4 +1 assign_35_5
  +1 assign_35_6 +1 assign_35_7 +1 assign_35_none = +2
 num_assignments_36: +1 assign_36_0 +1 assign_36_1 +1 assign_36_2 +1 assign_36_3 +1 assign_36_4 +1 assign_36_5
  +1 assign_36_6 +1 assign_36_7 +1 assign_36_none = +2
 num_assignments_37: +1 assign_37_0 +1 assign_37_1 +1 assign_37_2 +1 assign_37_3 +1 assign_37_4 +1 assign_37_5
  +1 assign_37_6 +1 assign_37_7 +1 assign_37_none = +2
 num_assignments_38: +1 assign_38_0 +1 assign_38_1 +1 assign_38_2 +1 assign_38_3 +1 assign_38_4 +1 assign_38_5
  +1 assign_38_6 +1 assign_38_7 +1 assign_38_none = +2
 num_assignments_39: +1 assign_39_0 +1 assign_39_1 +1 assign_39_2 +1 assign_39_3 +1 assign_39_4 +1 assign_39_5
  +1 assign_39_6 +1 assign_39_7 +1 assign_39_none = +2
 num_assignments_40: +1 assign_40_0 +1 assign_40_1 +1 assign_40_2 +1 assign_40_3 +1 assign_40_4 +1 assign_40_5
  +1 assign_40_6 +1 assign_40_7 +1 assign_40_none = +2
 num_assignments_41: +1 assign_41_0 +1 assign_41_1 +1 assign_41_2 +1 assign_41_3 +1 assign_41_4 +1 assign_41_5
  +1 assign_41_6 +1 assign_41_7 +1 assign_41_none = +2
 num_assignments_42: +1 assign_42_0 +1 assign_42_1 +1 assign_42_2 +1 assign_42_3 +1 assign_42_4 +1 assign_42_5
  +1 assign_42_6 +1 assign_42_7 +1 assign_42_none = +2
 num_assignments_43: +1 assign_43_0 +1 assign_43_1 +1 assign_43_2 +1 assign_43_3 +1 assign_43_4 +1 assign_43_5
  +1 assign_43_6 +1 assign_43_7 +1 assign_43_none = +2
 num_assignments_44: +1 assign_44_0 +1 assign_44_1 +1 assign_44_2 +1 assign_44_3 +1 assign_44_4 +1 assign_44_5
  +1 assign_44_6 +1 assign_44_7 +1 assign_44_none = +2
 num_assignments_45: +1 assign_45_0 +1 assign_45_1 +1 assign_45_2 +1 assign_45_3 +1 assign_45_4 +1 assign_45_5
  +1 assign_45_6 +1 assign_45_7 +1 assign_45_none = +2
 num_assignments_46: +1 assign_46_0 +1 assign_46_1 +1 assign_46_2 +1 assign_46_3 +1 assign_46_4 +1 assign_46_5
  +1 assign_46_6 +1 assign_46_7 +1 assign_46_none = +2
 num_assignments_47: +1 assign_47_0 +1 assign_47_1 +1 assign_47_2 +1 assign_47_3 +1 assign_47_4 +1 assign_47_5
  +1 assign_47_6 +1 assign_47_7 +1 assign_47_none = +2
 num_assignments_48: +1 assign_48_0 +1 assign_48_1 +1 assign_48_2 +1 assign_48_3 +1 assign_48_4 +1 assign_48_5
  +1 assign_48_6 +1 assign_48_7 +1 assign_48_none = +2
 num_assignments_49: +1 assign_49_0 +1 assign_49_1 +1 assign_49_2 +1 assign_49_3 +1 assign_49_4 +1 assign_49_5
  +1 assign_49_6 +1 assign_49_7 +1 assign_49_none = +2
 num_assignments_50: +1 assign_50_0 +1 assign_50_1 +1 assign_50_2 +1 assign_50_3 +1 assign_50_4 +1 assign_50_5
  +1 assign_50_6 +1 assign_50_7 +1 assign_50_none = +2
 num_assignments_51: +1 assign_51_0 +1 assign_51_1 +1 assign_51_2 +1 assign_51_3 +1 assign_51_4 +1 assign_51_5
  +1 assign_51_6 +1 assign_51_7 +1 assign_51_none = +2
 num_assignments_52: +1 assign_52_0 +1 assign_52_1 +1 assign_52_2 +1 assign_52_3 +1 assign_52_4 +1 assign_52_5
  +1 assign_52_6 +1 assign_52_7 +1 assign_52_none = +2
 num_assignments_53: +1 assign_53_0 +1 assign_53_1 +1 assign_53_2 +1 assign_53_3 +1 assign_53_4 +1 assign_53_5
  +1 assign_53_6 +1 assign_53_7 +1 assign_53_none = +2
 num_assignments_54: +1 assign_54_0 +1 assign_54_1 +1 assign_54_2 +1 assign_54_3 +1 assign_54_4 +1 assign_54_5
  +1 assign_54_6 +1 assign_54_7 +1 assign_54_none = +2
 num_assignments_55: +1 assign_55_0 +1 assign_55_1 +1 assign_55_2 +1 assign_55_3 +1 assign_55_4 +1 assign_55_5
  +1 assign_55_6 +1 assign_55_7 +1 assign_55_none = +2
 no_same_workshop_0_0: +1 assign_0_0 <= +1
 no_same_workshop_0_1: +1 assign_0_1 <= +1
 no_same_workshop_0_2: +1 assign_0_2 <= +1
 no_same_workshop_0_3: +1 assign_0_3 <= +1
 no_same_workshop_0_4: +1 assign_0_4 <= +1
 no_same_workshop_0_5: +1 assign_0_5 <= +1
 no_same_workshop_0_6: +1 assign_0_6 <= +1
 no_same_workshop_0_7: +1 assign_0_7 <= +1
 no_same_workshop_1_0: +1 assign_1_0 <= +1
 no_same_workshop_1_1: +1 assign_1_1 <= +1
 no_same_workshop_1_2: +1 assign_1_2 <= +1
 no_same_workshop_1_3: +1 assign_1_3 <= +1
 no_same_workshop_1_4: +1 assign_1_4 <= +1
 no_same_workshop_1_5: +1 assign_1_5 <= +1
 no_same_workshop_1_6: +1 assign_1_6 <= +1
 no_same_workshop_1_7: +1 assign_1_7 <= +1
 no_same_workshop_2_0: +1 assign_2_0 <= +1
 no_same_workshop_2_1: +1 assign_2_1 <= +1
 no_same_workshop_2_2: +1 assign_2_2 <= +1
 no_same_workshop_2_3: +1 assign_2_3 <= +1
 no_same_workshop_2_4: +1 assign_2_4 <= +1
 no_same_workshop_2_5: +1 assign_2_5 <= +1
 no_same_workshop_2_6: +1 assign_2_6 <= +1
 no_same_workshop_2_7: +1 assign_2_7 <= +1
 no_same_workshop_3_0: +1 assign_3_0 <= +1
 no_same_workshop_3_1: +1 assign_3_1 <= +1
 no_same_workshop_3_2: +1 assign_3_2 <= +1
 no_same_workshop_3_3: +1 assign_3_3 <= +1
 no_same_workshop_3_4: +1 assign_3_4 <= +1
 no_same_workshop_3_5: +1 assign_3_5 <= +1
 no_same_workshop_3_6: +1 assign_3_6 <= +1
 no_same_workshop_3_7: +1 assign_3_7 <= +1
 no_same_workshop_4_0: +1 assign_4_0 <= +1
 no_same_workshop_4_1: +1 assign_4_1 <= +1
 no_same_workshop_4_2: +1 assign_4_2 <= +1
 no_same_workshop_4_3: +1 assign_4_3 <= +1
 no_same_workshop_4_4: +1 assign_4_4 <= +1
 no_same_workshop_4_5: +1 assign_4_5 <= +1
 no_same_workshop_4_6: +1 assign_4_6 <= +1
 no_same_workshop_4_7: +1 assign_4_7 <= +1
 no_same_workshop_5_0: +1 assign_5_0 <= +1
 no_same_workshop_5_1: +1 assign_5_1 <= +1
 no_same_workshop_5_2: +1 assign_5_2 <= +1
 no_same_workshop_5_3: +1 assign_5_3 <= +1
 no_same_workshop_5_4: +1 assign_5_4 <= +1
 no_same_workshop_5_5: +1 assign_5_5 <= +1
 no_same_workshop_5_6: +1 assign_5_6 <= +1
 no_same_workshop_5_7: +1 assign_5_7 <= +1
 no_same_workshop_6_0: +1 assign_6_0 <= +1
 no_same_workshop_6_1: +1 assign_6_1 <= +1
 no_same_workshop_6_2: +1 assign_6_2 <= +1
 no_same_workshop_6_3: +1 assign_6_3 <= +1
 no_same_workshop_6_4: +1 assign_6_4 <= +1
 no_same_workshop_6_5: +1 assign_6_5 <= +1
 no_same_workshop_6_6: +1 assign_6_6 <= +1
 no_same_workshop_6_7: +1 assign_6_7 <= +1
 no_same_workshop_7_0: +1 assign_7_0 <= +1
 no_same_workshop_7_1: +1 assign_7_1 <= +1
 no_same_workshop_7_2: +1 assign_7_2 <= +1
 no_same_workshop_7_3: +1 assign_7_3 <= +1
 no_same_workshop_7_4: +1 assign_7_4 <= +1
 no_same_workshop_7_5: +1 assign_7_5 <= +1
 no_same_workshop_7_6: +1 assign_7_6 <= +1
 no_same_workshop_7_7: +1 assign_7_7 <= +1
 no_same_workshop_8_0: +1 assign_8_0 <= +1
 no_same_workshop_8_1: +1 assign_8_1 <= +1
 no_same_workshop_8_2: +1 assign_8_2 <= +1
 no_same_workshop_8_3: +1 assign_8_3 <= +1
 no_same_workshop_8_4: +1 assign_8_4 <= +1
 no_same_workshop_8_5: +1 assign_8_5 <= +1
 no_same_workshop_8_6: +1 assign_8_6 <= +1
 no_same_workshop_8_7: +1 assign_8_7 <= +1
 no_same_workshop_9_0: +1 assign_9_0 <= +1
 no_same_workshop_9_1: +1 assign_9_1 <= +1
 no_same_workshop_9_2: +1 assign_9_2 <= +1
 no_same_workshop_9_3: +1 assign_9_3 <= +1
 no_same_workshop_9_4: +1 assign_9_4 <= +1
 no_same_workshop_9_5: +1 assign_9_5 <= +1
 no_same_workshop_9_6: +1 assign_9_6 <= +1
 no_same_workshop_9_7: +1 assign_9_7 <= +1
 no_same_workshop_10_0: +1 assign_10_0 <= +1
 no_same_workshop_10_1: +1 assign_10_1 <= +1
 no_same_workshop_10_2: +1 assign_10_2 <= +1
 no_same_workshop_10_3: +1 assign_10_3 <= +1
 no_same_workshop_10_4: +1 assign_10_4 <= +1
 no_same_workshop_10_5: +1 assign_10_5 <= +1
 no_same_workshop_10_6: +1 assign_10_6 <= +1
 no_same_workshop_10_7: +1 assign_10_7 <= +1
 no_same_workshop_11_0: +1 assign_11_0 <= +1
 no_same_workshop_11_1: +1 assign_11_1 <= +1
 no_same_workshop_11_2: +1 assign_11_2 <= +1
 no_same_workshop_11_3: +1 assign_11_3 <= +1
 no_same_workshop_11_4: +1 assign_11_4 <= +1
 no_same_workshop_11_5: +1 assign_11_5 <= +1
 no_same_workshop_11_6: +1 assign_11_6 <= +1
 no_same_workshop_11_7: +1 assign_11_7 <= +1
 no_same_workshop_12_0: +1 assign_12_0 <= +1
 no_same_workshop_12_1: +1 assign_12_1 <= +1
 no_same_workshop_12_2: +1 assign_12_2 <= +1
 no_same_workshop_12_3: +1 assign_12_3 <= +1
 no_same_workshop_12_4: +1 assign_12_4 <= +1
 no_same_workshop_12_5: +1 assign_12_5 <= +1
 no_same_workshop_12_6: +1 assign_12_6 <= +1
 no_same_workshop_12_7: +1 assign_12_7 <= +1
 no_same_workshop_13_0: +1 assign_13_0 <= +1
 no_same_workshop_13_1: +1 assign_13_1 <= +1
 no_same_workshop_13_2: +1 assign_13_2 <= +1
 no_same_workshop_13_3: +1 assign_13_3 <= +1
 no_same_workshop_13_4: +1 assign_13_4 <= +1
 no_same_workshop_13_5: +1 assign_13_5 <= +1
 no_same_workshop_13_6: +1 assign_13_6 <= +1
 no_same_workshop_13_7: +1 assign_13_7 <= +1
 no_same_workshop_14_0: +1 assign_14_0 <= +1
 no_same_workshop_14_1: +1 assign_14_1 <= +1
 no_same_workshop_14_2: +1 assign_14_2 <= +1
 no_same_workshop_14_3: +1 assign_14_3 <= +1
 no_same_workshop_14_4: +1 assign_14_4 <= +1
 no_same_workshop_14_5: +1 assign_14_5 <= +1
 no_same_workshop_14_6: +1 assign_14_6 <= +1
 no_same_workshop_14_7: +1 assign_14_7 <= +1
 no_same_workshop_15_0: +1 assign_15_0 <= +1
 no_same_workshop_15_1: +1 assign_15_1 <= +1
 no_same_workshop_15_2: +1 assign_15_2 <= +1
 no_same_workshop_15_3: +1 assign_15_3 <= +1
 no_same_workshop_15_4: +1 assign_15_4 <= +1
 no_same_workshop_15_5: +1 assign_15_5 <= +1
 no_same_workshop_15_6: +1 assign_15_6 <= +1
 no_same_workshop_15_7: +1 assign_15_7 <= +1
 no_same_workshop_16_0: +1 assign_16_0 <= +1
 no_same_workshop_16_1: +1 assign_16_1 <= +1
 no_same_workshop_16_2: +1 assign_16_2 <= +1
 no_same_workshop_16_3: +1 assign_16_3 <= +1
 no_same_workshop_16_4: +1 assign_16_4 <= +1
 no_same_workshop_16_5: +1 assign_16_5 <= +1
 no_same_workshop_16_6: +1 assign_16_6 <= +1
 no_same_workshop_16_7: +1 assign_16_7 <= +1
 no_same_workshop_17_0: +1 assign_17_0 <= +1
 no_same_workshop_17_1: +1 assign_17_1 <= +1
 no_same_workshop_17_2: +1 assign_17_2 <= +1
 no_same_workshop_17_3: +1 assign_17_3 <= +1
 no_same_workshop_17_4: +1 assign_17_4 <= +1
 no_same_workshop_17_5: +1 assign_17_5 <= +1
 no_same_workshop_17_6: +1 assign_17_6 <= +1
 no_same_workshop_17_7: +1 assign_17_7 <= +1
 no_same_workshop_18_0: +1 assign_18_0 <= +1
 no_same_workshop_18_1: +1 assign_18_1 <= +1
 no_same_workshop_18_2: +1 assign_18_2 <= +1
 no_same_workshop_18_3: +1 assign_18_3 <= +1
 no_same_workshop_18_4: +1 assign_18_4 <= +1
 no_same_workshop_18_5: +1 assign_18_5 <= +1
 no_same_workshop_18_6: +1 assign_18_6 <= +1
 no_same_workshop_18_7: +1 assign_18_7 <= +1
 no_same_workshop_19_0: +1 assign_19_0 <= +1
 no_same_workshop_19_1: +1 assign_19_1 <= +1
 no_same_workshop_19_2: +1 assign_19_2 <= +1
 no_same_workshop_19_3: +1 assign_19_3 <= +1
 no_same_workshop_19_4: +1 assign_19_4 <= +1
 no_same_workshop_19_5: +1 assign_19_5 <= +1
 no_same_workshop_19_6: +1 assign_19_6 <= +1
 no_same_workshop_19_7: +1 assign_19_7 <= +1
 no_same_workshop_20_0: +1 assign_20_0 <= +1
 no_same_workshop_20_1: +1 assign_20_1 <= +1
 no_same_workshop_20_2: +1 assign_20_2 <= +1
 no_same_workshop_20_3: +1 assign_20_3 <= +1
 no_same_workshop_20_4: +1 assign_20_4 <= +1
 no_same_workshop_20_5: +1 assign_20_5 <= +1
 no_same_workshop_20_6: +1 assign_20_6 <= +1
 no_same_workshop_20_7: +1 assign_20_7 <= +1
 no_same_workshop_21_0: +1 assign_21_0 <= +1
 no_same_workshop_21_1: +1 assign_21_1 <= +1
 no_same_workshop_21_2: +1 assign_21_2 <= +1
 no_same_workshop_21_3: +1 assign_21_3 <= +1
 no_same_workshop_21_4: +1 assign_21_4 <= +1
 no_same_workshop_21_5: +1 assign_21_5 <= +1
 no_same_workshop_21_6: +1 assign_21_6 <= +1
 no_same_workshop_21_7: +1 assign_21_7 <= +1
 no_same_workshop_22_0: +1 assign_22_0 <= +1
 no_same_workshop_22_1: +1 assign_22_1 <= +1
 no_same_workshop_22_2: +1 assign_22_2 <= +1
 no_same_workshop_22_3: +1 assign_22_3 <= +1
 no_same_workshop_22_4: +1 assign_22_4 <= +1
 no_same_workshop_22_5: +1 assign_22_5 <= +1
 no_same_workshop_22_6: +1 assign_22_6 <= +1
 no_same_workshop_22_7: +1 assign_22_7 <= +1
 no_same_workshop_23_0: +1 assign_23_0 <= +1
 no_same_workshop_23_1: +1 assign_23_1 <= +1
 no_same_workshop_23_2: +1 assign_23_2 <= +1
 no_same_workshop_23_3: +1 assign_23_3 <= +1
 no_same_workshop_23_4: +1 assign_23_4 <= +1
 no_same_workshop_23_5: +1 assign_23_5 <= +1
 no_same_workshop_23_6: +1 assign_23_6 <= +1
 no_same_workshop_23_7: +1 assign_23_7 <= +1
 no_same_workshop_24_0: +1 assign_24_0 <= +1
 no_same_workshop_24_1: +1 assign_24_1 <= +1
 no_same_workshop_24_2: +1 assign_24_2 <= +1
 no_same_workshop_24_3: +1 assign_24_3 <= +1
 no_same_workshop_24_4: +1 assign_24_4 <= +1
 no_same_workshop_24_5: +1 assign_24_5 <= +1
 no_same_workshop_24_6: +1 assign_24_6 <= +1
 no_same_workshop_24_7: +1 assign_24_7 <= +1
 no_same_workshop_25_0: +1 assign_25_0 <= +1
 no_same_workshop_25_1: +1 assign_25_1 <= +1
 no_same_workshop_25_2: +1 assign_25_2 <= +1
 no_same_workshop_25_3: +1 assign_25_3 <= +1
 no_same_workshop_25_4: +1 assign_25_4 <= +1
 no_same_workshop_25_5: +1 assign_25_5 <= +1
 no_same_workshop_25_6: +1 assign_25_6 <= +1
 no_same_workshop_25_7: +1 assign_25_7 <= +1
 no_same_workshop_26_0: +1 assign_26_0 <= +1
 no_same_workshop_26_1: +1 assign_26_1 <= +1
 no_same_workshop_26_2: +1 assign_26_2 <= +1
 no_same_workshop_26_3: +1 assign_26_3 <= +1
 no_same_workshop_26_4: +1 assign_26_4 <= +1
 no_same_workshop_26_5: +1 assign_26_5 <= +1
 no_same_workshop_26_6: +1 assign_26_6 <= +1
 no_same_workshop_26_7: +1 assign_26_7 <= +1
 no_same_workshop_27_0: +1 assign_27_0 <= +1
 no_same_workshop_27_1: +1 assign_27_1 <= +1
 no_same_workshop_27_2: +1 assign_27_2 <= +1
 no_same_workshop_27_3: +1 assign_27_3 <= +1
 no_same_workshop_27_4: +1 assign_27_4 <= +1
 no_same_workshop_27_5: +1 assign_27_5 <= +1
 no_same_workshop_27_6: +1 assign_27_6 <= +1
 no_same_workshop_27_7: +1 assign_27_7 <= +1
 no_same_workshop_28_0: +1 assign_28_0 <= +1
 no_same_workshop_28_1: +1 assign_28_1 <= +1
 no_same_workshop_28_2: +1 assign_28_2 <= +1
 no_same_workshop_28_3: +1 assign_28_3 <= +1
 no_same_workshop_28_4: +1 assign_28_4 <= +1
 no_same_workshop_28_5: +1 assign_28_5 <= +1
 no_same_workshop_28_6: +1 assign_28_6 <= +1
 no_same_workshop_28_7: +1 assign_28_7 <= +1
 no_same_workshop_29_0: +1 assign_29_0 <= +1
 no_same_workshop_29_1: +1 assign_29_1 <= +1
 no_same_workshop_29_2: +1 assign_29_2 <= +1
 no_same_workshop_29_3: +1 assign_29_3 <= +1
 no_same_workshop_29_4: +1 assign_29_4 <= +1
 no_same_workshop_29_5: +1 assign_29_5 <= +1
 no_same_workshop_29_6: +1 assign_29_6 <= +1
 no_same_workshop_29_7: +1 assign_29_7 <= +1
 no_same_workshop_30_0: +1 assign_30_0 <= +1
 no_same_workshop_30_1: +1 assign_30_1 <= +1
 no_same_workshop_30_2: +1 assign_30_2 <= +1
 no_same_workshop_30_3: +1 assign_30_3 <= +1
 no_same_workshop_30_4: +1 assign_30_4 <= +1
 no_same_workshop_30_5: +1 assign_30_5 <= +1
 no_same_workshop_30_6: +1 assign_30_6 <= +1
 no_same_workshop_30_7: +1 assign_30_7 <= +1
 no_same_workshop_31_0: +1 assign_31_0 <= +1
 no_same_workshop_31_1: +1 assign_31_1 <= +1
 no_same_workshop_31_2: +1 assign_31_2 <= +1
 no_same_workshop_31_3: +1 assign_31_3 <= +1
 no_same_workshop_31_4: +1 assign_31_4 <= +1
 no_same_workshop_31_5: +1 assign_31_5 <= +1
 no_same_workshop_31_6: +1 assign_31_6 <= +1
 no_same_workshop_31_7: +1 assign_31_7 <= +1
 no_same_workshop_32_0: +1 assign_32_0 <= +1
 no_same_workshop_32_1: +1 assign_32_1 <= +1
 no_same_workshop_32_2: +1 assign_32_2 <= +1
 no_same_workshop_32_3: +1 assign_32_3 <= +1
 no_same_workshop_32_4: +1 assign_32_4 <= +1
 no_same_workshop_32_5: +1 assign_32_5 <= +1
 no_same_workshop_32_6: +1 assign_32_6 <= +1
 no_same_workshop_32_7: +1 assign_32_7 <= +1
 no_same_workshop_33_0: +1 assign_33_0 <= +1
 no_same_workshop_33_1: +1 assign_33_1 <= +1
 no_same_workshop_33_2: +1 assign_33_2 <= +1
 no_same_workshop_33_3: +1 assign_33_3 <= +1
 no_same_workshop_33_4: +1 assign_33_4 <= +1
 no_same_workshop_33_5: +1 assign_33_5 <= +1
 no_same_workshop_33_6: +1 assign_33_6 <= +1
 no_same_workshop_33_7: +1 assign_33_7 <= +1
 no_same_workshop_34_0: +1 assign_34_0 <= +1
 no_same_workshop_34_1: +1 assign_34_1 <= +1
 no_same_workshop_34_2: +1 assign_34_2 <= +1
 no_same_workshop_34_3: +1 assign_34_3 <= +1
 no_same_workshop_34_4: +1 assign_34_4 <= +1
 no_same_workshop_34_5: +1 assign_34_5 <= +1
 no_same_workshop_34_6: +1 assign_34_6 <= +1
 no_same_workshop_34_7: +1 assign_34_7 <= +1
 no_same_workshop_35_0: +1 assign_35_0 <= +1
 no_same_workshop_35_1: +1 assign_35_1 <= +1
 no_same_workshop_35_2: +1 assign_35_2 <= +1
 no_same_workshop_35_3: +1 assign_35_3 <= +1
 no_same_workshop_35_4: +1 assign_35_4 <= +1
 no_same_workshop_35_5: +1 assign_35_5 <= +1
 no_same_workshop_35_6: +1 assign_35_6 <= +1
 no_same_workshop_35_7: +1 assign_35_7 <= +1
 no_same_workshop_36_0: +1 assign_36_0 <= +1
 no_same_workshop_36_1: +1 assign_36_1 <= +1
 no_same_workshop_36_2: +1 assign_36_2 <= +1
 no_same_workshop_36_3: +1 assign_36_3 <= +1
 no_same_workshop_36_4: +1 assign_36_4 <= +1
 no_same_workshop_36_5: +1 assign_36_5 <= +1
 no_same_workshop_36_6: +1 assign_36_6 <= +1
 no_same_workshop_36_7: +1 assign_36_7 <= +1
 no_same_workshop_37_0: +1 assign_37_0 <= +1
 no_same_workshop_37_1: +1 assign_37_1 <= +1
 no_same_workshop_37_2: +1 assign_37_2 <= +1
 no_same_workshop_37_3: +1 assign_37_3 <= +1
 no_same_workshop_37_4: +1 assign_37_4 <= +1
 no_same_workshop_37_5: +1 assign_37_5 <= +1
 no_same_workshop_37_6: +1 assign_37_6 <= +1
 no_same_workshop_37_7: +1 assign_37_7 <= +1
 no_same_workshop_38_0: +1 assign_38_0 <= +1
 no_same_workshop_38_1: +1 assign_38_1 <= +1
 no_same_workshop_38_2: +1 assign_38_2 <= +1
 no_same_workshop_38_3: +1 assign_38_3 <= +1
 no_same_workshop_38_4: +1 assign_38_4 <= +1
 no_same_workshop_38_5: +1 assign_38_5 <= +1
 no_same_workshop_38_6: +1 assign_38_6 <= +1
 no_same_workshop_38_7: +1 assign_38_7 <= +1
 no_same_workshop_39_0: +1 assign_39_0 <= +1
 no_same_workshop_39_1: +1 assign_39_1 <= +1
 no_same_workshop_39_2: +1 assign_39_2 <= +1
 no_same_workshop_39_3: +1 assign_39_3 <= +1
 no_same_workshop_39_4: +1 assign_39_4 <= +1
 no_same_workshop_39_5: +1 assign_39_5 <= +1
 no_same_workshop_39_6: +1 assign_39_6 <= +1
 no_same_workshop_39_7: +1 assign_39_7 <= +1
 no_same_workshop_40_0: +1 assign_40_0 <= +1
 no_same_workshop_40_1: +1 assign_40_1 <= +1
 no_same_workshop_40_2: +1 assign_40_2 <= +1
 no_same_workshop_40_3: +1 assign_40_3 <= +1
 no_same_workshop_40_4: +1 assign_40_4 <= +1
 no_same_workshop_40_5: +1 assign_40_5 <= +1
 no_same_workshop_40_6: +1 assign_40_6 <= +1
 no_same_workshop_40_7: +1 assign_40_7 <= +1
 no_same_workshop_41_0: +1 assign_41_0 <= +1
 no_same_workshop_41_1: +1 assign_41_1 <= +1
 no_same_workshop_41_2: +1 assign_41_2 <= +1
 no_same_workshop_41_3: +1 assign_41_3 <= +1
 no_same_workshop_41_4: +1 assign_41_4 <= +1
 no_same_workshop_41_5: +1 assign_41_5 <= +1
 no_same_workshop_41_6: +1 assign_41_6 <= +1
 no_same_workshop_41_7: +1 assign_41_7 <= +1
 no_same_workshop_42_0: +1 assign_42_0 <= +1
 no_same_workshop_42_1: +1 assign_42_1 <= +1
 no_same_workshop_42_2: +1 assign_42_2 <= +1
 no_same_workshop_42_3: +1 assign_42_3 <= +1
 no_same_workshop_42_4: +1 assign_42_4 <= +1
 no_same_workshop_42_5: +1 assign_42_5 <= +1
 no_same_workshop_42_6: +1 assign_42_6 <= +1
 no_same_workshop_42_7: +1 assign_42_7 <= +1
 no_same_workshop_43_0: +1 assign_43_0 <= +1
 no_same_workshop_43_1: +1 assign_43_1 <= +1
 no_same_workshop_43_2: +1 assign_43_2 <= +1
 no_same_workshop_43_3: +1 assign_43_3 <= +1
 no_same_workshop_43_4: +1 assign_43_4 <= +1
 no_same_workshop_43_5: +1 assign_43_5 <= +1
 no_same_workshop_43_6: +1 assign_43_6 <= +1
 no_same_workshop_43_7: +1 assign_43_7 <= +1
 no_same_workshop_44_0: +1 assign_44_0 <= +1
 no_same_workshop_44_1: +1 assign_44_1 <= +1
 no_same_workshop_44_2: +1 assign_44_2 <= +1
 no_same_workshop_44_3: +1 assign_44_3 <= +1
 no_same_workshop_44_4: +1 assign_44_4 <= +1
 no_same_workshop_44_5: +1 assign_44_5 <= +1
 no_same_workshop_44_6: +1 assign_44_6 <= +1
 no_same_workshop_44_7: +1 assign_44_7 <= +1
 no_same_workshop_45_0: +1 assign_45_0 <= +1
 no_same_workshop_45_1: +1 assign_45_1 <= +1
 no_same_workshop_45_2: +1 assign_45_2 <= +1
 no_same_workshop_45_3: +1 assign_45_3 <= +1
 no_same_workshop_45_4: +1 assign_45_4 <= +1
 no_same_workshop_45_5: +1 assign_45_5 <= +1
 no_same_workshop_45_6: +1 assign_45_6 <= +1
 no_same_workshop_45_7: +1 assign_45_7 <= +1
 no_same_workshop_46_0: +1 assign_46_0 <= +1
 no_same_workshop_46_1: +1 assign_46_1 <= +1
 no_same_workshop_46_2: +1 assign_46_2 <= +1
 no_same_workshop_46_3: +1 assign_46_3 <= +1
 no_same_workshop_46_4: +1 assign_46_4 <= +1
 no_same_workshop_46_5: +1 assign_46_5 <= +1
 no_same_workshop_46_6: +1 assign_46_6 <= +1
 no_same_workshop_46_7: +1 assign_46_7 <= +1
 no_same_workshop_47_0: +1 assign_47_0 <= +1
 no_same_workshop_47_1: +1 assign_47_1 <= +1
 no_same_workshop_47_2: +1 assign_47_2 <= +1
 no_same_workshop_47_3: +1 assign_47_3 <= +1
 no_same_workshop_47_4: +1 assign_47_4 <= +1
 no_same_workshop_47_5: +1 assign_47_5 <= +1
 no_same_workshop_47_6: +1 assign_47_6 <= +1
 no_same_workshop_47_7: +1 assign_47_7 <= +1
 no_same_workshop_48_0: +1 assign_48_0 <= +1
 no_same_workshop_48_1: +1 assign_48_1 <= +1
 no_same_workshop_48_2: +1 assign_48_2 <= +1
 no_same_workshop_48_3: +1 assign_48_3 <= +1
 no_same_workshop_48_4: +1 assign_48_4 <= +1
 no_same_workshop_48_5: +1 assign_48_5 <= +1
 no_same_workshop_48_6: +1 assign_48_6 <= +1
 no_same_workshop_48_7: +1 assign_48_7 <= +1
 no_same_workshop_49_0: +1 assign_49_0 <= +1
 no_same_workshop_49_1: +1 assign_49_1 <= +1
 no_same_workshop_49_2: +1 assign_49_2 <= +1
 no_same_workshop_49_3: +1 assign_49_3 <= +1
 no_same_workshop_49_4: +1 assign_49_4 <= +1
 no_same_workshop_49_5: +1 assign_49_5 <= +1
 no_same_workshop_49_6: +1 assign_49_6 <= +1
 no_same_workshop_49_7: +1 assign_49_7 <= +1
 no_same_workshop_50_0: +1 assign_50_0 <= +1
 no_same_workshop_50_1: +1 assign_50_1 <= +1
 no_same_workshop_50_2: +1 assign_50_2 <= +1
 no_same_workshop_50_3: +1 assign_50_3 <= +1
 no_same_workshop_50_4: +1 assign_50_4 <= +1
 no_same_workshop_50_5: +1 assign_50_5 <= +1
 no_same_workshop_50_6: +1 assign_50_6 <= +1
 no_same_workshop_50_7: +1 assign_50_7 <= +1
 no_same_workshop_51_0: +1 assign_51_0 <= +1
 no_same_workshop_51_1: +1 assign_51_1 <= +1
 no_same_workshop_51_2: +1 assign_51_2 <= +1
 no_same_workshop_51_3: +1 assign_51_3 <= +1
 no_same_workshop_51_4: +1 assign_51_4 <= +1
 no_same_workshop_51_5: +1 assign_51_5 <= +1
 no_same_workshop_51_6: +1 assign_51_6 <= +1
 no_same_workshop_51_7: +1 assign_51_7 <= +1
 no_same_workshop_52_0: +1 assign_52_0 <= +1
 no_same_workshop_52_1: +1 assign_52_1 <= +1
 no_same_workshop_52_2: +1 assign_52_2 <= +1
 no_same_workshop_52_3: +1 assign_52_3 <= +1
 no_same_workshop_52_4: +1 assign_52_4 <= +1
 no_same_workshop_52_5: +1 assign_52_5 <= +1
 no_same_workshop_52_6: +1 assign_52_6 <= +1
 no_same_workshop_52_7: +1 assign_52_7 <= +1
 no_same_workshop_53_0: +1 assign_53_0 <= +1
 no_same_workshop_53_1: +1 assign_53_1 <= +1
 no_same_workshop_53_2: +1 assign_53_2 <= +1
 no_same_workshop_53_3: +1 assign_53_3 <= +1
 no_same_workshop_53_4: +1 assign_53_4 <= +1
 no_same_workshop_53_5: +1 assign_53_5 <= +1
 no_same_workshop_53_6: +1 assign_53_6 <= +1
 no_same_workshop_53_7: +1 assign_53_7 <= +1
 no_same_workshop_54_0: +1 assign_54_0 <= +1
 no_same_workshop_54_1: +1 assign_54_1 <= +1
 no_same_workshop_54_2: +1 assign_54_2 <= +1
 no_same_workshop_54_3: +1 assign_54_3 <= +1
 no_same_workshop_54_4: +1 assign_54_4 <= +1
 no_same_workshop_54_5: +1 assign_54_5 <= +1
 no_same_workshop_54_6: +1 assign_54_6 <= +1
 no_same_workshop_54_7: +1 assign_54_7 <= +1
 no_same_workshop_55_0: +1 assign_55_0 <= +1
 no_same_workshop_55_1: +1 assign_55_1 <= +1
 no_same_workshop_55_2: +1 assign_55_2 <= +1
 no_same_workshop_55_3: +1 assign_55_3 <= +1
 no_same_workshop_55_4: +1 assign_55_4 <= +1
 no_same_workshop_55_5: +1 assign_55_5 <= +1
 no_same_workshop_55_6: +1 assign_55_6 <= +1
 no_same_workshop_55_7: +1 assign_55_7 <= +1
 cap_0: +1 assign_0_0 +1 assign_1_0 +1 assign_2_0 +1 assign_3_0 +1 assign_4_0 +1 assign_5_0 +1 assign_6_0
  +1 assign_7_0 +1 assign_8_0 +1 assign_9_0 +1 assign_10_0 +1 assign_11_0 +1 assign_12_0 +1 assign_13_0
  +1 assign_14_0 +1 assign_15_0 +1 assign_16_0 +1 assign_17_0 +1 assign_18_0 +1 assign_19_0 +1 assign_20_0
  +1 assign_21_0 +1 assign_22_0 +1 assign_23_0 +1 assign_24_0 +1 assign_25_0 +1 assign_26_0 +1 assign_27_0
  +1 assign_28_0 +1 assign_29_0 +1 assign_30_0 +1 assign_31_0 +1 assign_32_0 +1 assign_33_0 +1 assign_34_0
  +1 assign_35_0 +1 assign_36_0 +1 assign_37_0 +1 assign_38_0 +1 assign_39_0 +1 assign_40_0 +1 assign_41_0
  +1 assign_42_0 +1 assign_43_0 +1 assign_44_0 +1 assign_45_0 +1 assign_46_0 +1 assign_47_0 +1 assign_48_0
  +1 assign_49_0 +1 assign_50_0 +1 assign_51_0 +1 assign_52_0 +1 assign_53_0 +1 assign_54_0 +1 assign_55_0
  <= +20
 cap_1: +1 assign_0_1 +1 assign_1_1 +1 assign_2_1 +1 assign_3_1 +1 assign_4_1 +1 assign_5_1 +1 assign_6_1
  +1 assign_7_1 +1 assign_8_1 +1 assign_9_1 +1 assign_10_1 +1 assign_11_1 +1 assign_12_1 +1 assign_13_1
  +1 assign_14_1 +1 assign_15_1 +1 assign_16_1 +1 assign_17_1 +1 assign_18_1 +1 assign_19_1 +1 assign_20_1
  +1 assign_21_1 +1 assign_22_1 +1 assign_23_1 +1 assign_24_1 +1 assign_25_1 +1 assign_26_1 +1 assign_27_1
  +1 assign_28_1 +1 assign_29_1 +1 assign_30_1 +1 assign_31_1 +1 assign_32_1 +1 assign_33_1 +1 assign_34_1
  +1 assign_35_1 +1 assign_36_1 +1 assign_37_1 +1 assign_38_1 +1 assign_39_1 +1 assign_40_1 +1 assign_41_1
  +1 assign_42_1 +1 assign_43_1 +1 assign_44_1 +1 assign_45_1 +1 assign_46_1 +1 assign_47_1 +1 assign_48_1
  +1 assign_49_1 +1 assign_50_1 +1 assign_51_1 +1 assign_52_1 +1 assign_53_1 +1 assign_54_1 +1 assign_55_1
  <= +20
 cap_2: +1 assign_0_2 +1 assign_1_2 +1 assign_2_2 +1 assign_3_2 +1 assign_4_2 +1 assign_5_2 +1 assign_6_2
  +1 assign_7_2 +1 assign_8_2 +1 assign_9_2 +1 assign_10_2 +1 assign_11_2 +1 assign_12_2 +1 assign_13_2
  +1 assign_14_2 +1 assign_15_2 +1 assign_16_2 +1 assign_17_2 +1 assign_18_2 +1 assign_19_2 +1 assign_20_2
  +1 assign_21_2 +1 assign_22_2 +1 assign_23_2 +1 assign_24_2 +1 assign_25_2 +1 assign_26_2 +1 assign_27_2
  +1 assign_28_2 +1 assign_29_2 +1 assign_30_2 +1 assign_31_2 +1 assign_32_2 +1 assign_33_2 +1 assign_34_2
  +1 assign_35_2 +1 assign_36_2 +1 assign_37_2 +1 assign_38_2 +1 assign_39_2 +1 assign_40_2 +1 assign_41_2
  +1 assign_42_2 +1 assign_43_2 +1 assign_44_2 +1 assign_45_2 +1 assign_46_2 +1 assign_47_2 +1 assign_48_2
  +1 assign_49_2 +1 assign_50_2 +1 assign_51_2 +1 assign_52_2 +1 assign_53_2 +1 assign_54_2 +1 assign_55_2
  <= +20
 cap_3: +1 assign_0_3 +1 assign_1_3 +1 assign_2_3 +1 assign_3_3 +1 assign_4_3 +1 assign_5_3 +1 assign_6_3
  +1 assign_7_3 +1 assign_8_3 +1 assign_9_3 +1 assign_10_3 +1 assign_11_3 +1 assign_12_3 +1 assign_13_3
  +1 assign_14_3 +1 assign_15_3 +1 assign_16_3 +1 assign_17_3 +1 assign_18_3 +1 assign_19_3 +1 assign_20_3
  +1 assign_21_3 +1 assign_22_3 +1 assign_23_3 +1 assign_24_3 +1 assign_25_3 +1 assign_26_3 +1 assign_27_3
  +1 assign_28_3 +1 assign_29_3 +1 assign_30_3 +1 assign_31_3 +1 assign_32_3 +1 assign_33_3 +1 assign_34_3
  +1 assign_35_3 +1 assign_36_3 +1 assign_37_3 +1 assign_38_3 +1 assign_39_3 +1 assign_40_3 +1 assign_41_3
  +1 assign_42_3 +1 assign_43_3 +1 assign_44_3 +1 assign_45_3 +1 assign_46_3 +1 assign_47_3 +1 assign_48_3
  +1 assign_49_3 +1 assign_50_3 +1 assign_51_3 +1 assign_52_3 +1 assign_53_3 +1 assign_54_3 +1 assign_55_3
  <= +20
 cap_4: +1 assign_0_4 +1 assign_1_4 +1 assign_2_4 +1 assign_3_4 +1 assign_4_4 +1 assign_5_4 +1 assign_6_4
  +1 assign_7_4 +1 assign_8_4 +1 assign_9_4 +1 assign_10_4 +1 assign_11_4 +1 assign_12_4 +1 assign_13_4
  +1 assign_14_4 +1 assign_15_4 +1 assign_16_4 +1 assign_17_4 +1 assign_18_4 +1 assign_19_4 +1 assign_20_4
  +1 assign_21_4 +1 assign_22_4 +1 assign_23_4 +1 assign_24_4 +1 assign_25_4 +1 assign_26_4 +1 assign_27_4
  +1 assign_28_4 +1 assign_29_4 +1 assign_30_4 +1 assign_31_4 +1 assign_32_4 +1 assign_33_4 +1 assign_34_4
  +1 assign_35_4 +1 assign_36_4 +1 assign_37_4 +1 assign_38_4 +1 assign_39_4 +1 assign_40_4 +1 assign_41_4
  +1 assign_42_4 +1 assign_43_4 +1 assign_44_4 +1 assign_45_4 +1 assign_46_4 +1 assign_47_4 +1 assign_48_4
  +1 assign_49_4 +1 assign_50_4 +1 assign_51_4 +1 assign_52_4 +1 assign_53_4 +1 assign_54_4 +1 assign_55_4
  <= +20
 cap_5: +1 assign_0_5 +1 assign_1_5 +1 assign_2_5 +1 assign_3_5 +1 assign_4_5 +1 assign_5_5 +1 assign_6_5
  +1 assign_7_5 +1 assign_8_5 +1 assign_9_5 +1 assign_10_5 +1 assign_11_5 +1 assign_12_5 +1 assign_13_5
  +1 assign_14_5 +1 assign_15_5 +1 assign_16_5 +1 assign_17_5 +1 assign_18_5 +1 assign_19_5 +1 assign_20_5
  +1 assign_21_5 +1 assign_22_5 +1 assign_23_5 +1 assign_24_5 +1 assign_25_5 +1 assign_26_5 +1 assign_27_5
  +1 assign_28_5 +1 assign_29_5 +1 assign_30_5 +1 assign_31_5 +1 assign_32_5 +1 assign_33_5 +1 assign_34_5
  +1 assign_35_5 +1 assign_36_5 +1 assign_37_5 +1 assign_38_5 +1 assign_39_5 +1 assign_40_5 +1 assign_41_5
  +1 assign_42_5 +1 assign_43_5 +1 assign_44_5 +1 assign_45_5 +1 assign_46_5 +1 assign_47_5 +1 assign_48_5
  +1 assign_49_5 +1 assign_50_5 +1 assign_51_5 +1 assign_52_5 +1 assign_53_5 +1 assign_54_5 +1 assign_55_5
  <= +20
 cap_6: +1 assign_0_6 +1 assign_1_6 +1 assign_2_6 +1 assign_3_6 +1 assign_4_6 +1 assign_5_6 +1 assign_6_6
  +1 assign_7_6 +1 assign_8_6 +1 assign_9_6 +1 assign_10_6 +1 assign_11_6 +1 assign_12_6 +1 assign_13_6
  +1 assign_14_6 +1 assign_15_6 +1 assign_16_6 +1 assign_17_6 +1 assign_18_6 +1 assign_19_6 +1 assign_20_6
  +1 assign_21_6 +1 assign_22_6 +1 assign_23_6 +1 assign_24_6 +1 assign_25_6 +1 assign_26_6 +1 assign_27_6
  +1 assign_28_6 +1 assign_29_6 +1 assign_30_6 +1 assign_31_6 +1 assign_32_6 +1 assign_33_6 +1 assign_34_6
  +1 assign_35_6 +1 assign_36_6 +1 assign_37_6 +1 assign_38_6 +1 assign_39_6 +1 assign_40_6 +1 assign_41_6
  +1 assign_42_6 +1 assign_43_6 +1 assign_44_6 +1 assign_45_6 +1 assign_46_6 +1 assign_47_6 +1 assign_48_6
  +1 assign_49_6 +1 assign_50_6 +1 assign_51_6 +1 assign_52_6 +1 assign_53_6 +1 assign_54_6 +1 assign_55_6
  <= +20
 cap_7: +1 assign_0_7 +1 assign_1_7 +1 assign_2_7 +1 assign_3_7 +1 assign_4_7 +1 assign_5_7 +1 assign_6_7
  +1 assign_7_7 +1 assign_8_7 +1 assign_9_7 +1 assign_10_7 +1 assign_11_7 +1 assign_12_7 +1 assign_13_7
  +1 assign_14_7 +1 assign_15_7 +1 assign_16_7 +1 assign_17_7 +1 assign_18_7 +1 assign_19_7 +1 assign_20_7
  +1 assign_21_7 +1 assign_22_7 +1 assign_23_7 +1 assign_24_7 +1 assign_25_7 +1 assign_26_7 +1 assign_27_7
  +1 assign_28_7 +1 assign_29_7 +1 assign_30_7 +1 assign_31_7 +1 assign_32_7 +1 assign_33_7 +1 assign_34_7
  +1 assign_35_7 +1 assign_36_7 +1 assign_37_7 +1 assign_38_7 +1 assign_39_7 +1 assign_40_7 +1 assign_41_7
  +1 assign_42_7 +1 assign_43_7 +1 assign_44_7 +1 assign_45_7 +1 assign_46_7 +1 assign_47_7 +1 assign_48_7
  +1 assign_49_7 +1 assign_50_7 +1 assign_51_7 +1 assign_52_7 +1 assign_53_7 +1 assign_54_7 +1 assign_55_7
  <= +20
Bounds
 0 <= assign_0_0 <= 2
 0 <= assign_0_1 <= 2
 0 <= assign_0_2 <= 2
 0 <= assign_0_3 <= 2
 0 <= assign_0_4 <= 2
 0 <= assign_0_5 <= 2
 0 <= assign_0_6 <= 2
 0 <= assign_0_7 <= 2
 0 <= assign_0_none <= 2
 0 <= assign_1_0 <= 2
 0 <= assign_1_1 <= 2
 0 <= assign_1_2 <= 2
 0 <= assign_1_3 <= 2
 0 <= assign_1_4 <= 2
 0 <= assign_1_5 <= 2
 0 <= assign_1_6 <= 2
 0 <= assign_1_7 <= 2
 0 <= assign_1_none <= 2
 0 <= assign_2_0 <= 2
 0 <= assign_2_1 <= 2
 0 <= assign_2_2 <= 2
 0 <= assign_2_3 <= 2
 0 <= assign_2_4 <= 2
 0 <= assign_2_5 <= 2
 0 <= assign_2_6 <= 2
 0 <= assign_2_7 <= 2
 0 <= assign_2_none <= 2
 0 <= assign_3_0 <= 2
 0 <= assign_3_1 <= 2
 0 <= assign_3_2 <= 2
 0 <= assign_3_3 <= 2
 0 <= assign_3_4 <= 2
 0 <= assign_3_5 <= 2
 0 <= assign_3_6 <= 2
 0 <= assign_3_7 <= 2
 0 <= assign_3_none <= 2
 0 <= assign_4_0 <= 2
 0 <= assign_4_1 <= 2
 0 <= assign_4_2 <= 2
 0 <= assign_4_3 <= 2
 0 <= assign_4_4 <= 2
 0 <= assign_4_5 <= 2
 0 <= assign_4_6 <= 2
 0 <= assign_4_7 <= 2
 0 <= assign_4_none <= 2
 0 <= assign_5_0 <= 2
 0 <= assign_5_1 <= 2
 0 <= assign_5_2 <= 2
 0 <= assign_5_3 <= 2
 0 <= assign_5_4 <= 2
 0 <= assign_5_5 <= 2
 0 <= assign_5_6 <= 2
 0 <= assign_5_7 <= 2
 0 <= assign_5_none <= 2
 0 <= assign_6_0 <= 2
 0 <= assign_6_1 <= 2
 0 <= assign_6_2 <= 2
 0 <= assign_6_3 <= 2
 0 <= assign_6_4 <= 2
 0 <= assign_6_5 <= 2
 0 <= assign_6_6 <= 2
 0 <= assign_6_7 <= 2
 0 <= assign_6_none <= 2
 0 <= assign_7_0 <= 2
 0 <= assign_7_1 <= 2
 0 <= assign_7_2 <= 2
 0 <= assign_7_3 <= 2
 0 <= assign_7_4 <= 2
 0 <= assign_7_5 <= 2
 0 <= assign_7_6 <= 2
 0 <= assign_7_7 <= 2
 0 <= assign_7_none <= 2
 0 <= assign_8_0 <= 2
 0 <= assign_8_1 <= 2
 0 <= assign_8_2 <= 2
 0 <= assign_8_3 <= 2
 0 <= assign_8_4 <= 2
 0 <= assign_8_5 <= 2
 0 <= assign_8_6 <= 2
 0 <= assign_8_7 <= 2
 0 <= assign_8_none <= 2
 0 <= assign_9_0 <= 2
 0 <= assign_9_1 <= 2
 0 <= assign_9_2 <= 2
 0 <= assign_9_3 <= 2
 0 <= assign_9_4 <= 2
 0 <= assign_9_5 <= 2
 0 <= assign_9_6 <= 2
 0 <= assign_9_7 <= 2
 0 <= assign_9_none <= 2
 0 <= assign_10_0 <= 2
 0 <= assign_10_1 <= 2
 0 <= assign_10_2 <= 2
 0 <= assign_10_3 <= 2
 0 <= assign_10_4 <= 2
 0 <= assign_10_5 <= 2
 0 <= assign_10_6 <= 2
 0 <= assign_10_7 <= 2
 0 <= assign_10_none <= 2
 0 <= assign_11_0 <= 2
 0 <= assign_11_1 <= 2
 0 <= assign_11_2 <= 2
 0 <= assign_11_3 <= 2
 0 <= assign_11_4 <= 2
 0 <= assign_11_5 <= 2
 0 <= assign_11_6 <= 2
 0 <= assign_11_7 <= 2
 0 <= assign_11_none <= 2
 0 <= assign_12_0 <= 2
 0 <= assign_12_1 <= 2
 0 <= assign_12_2 <= 2
 0 <= assign_12_3 <= 2
 0 <= assign_12_4 <= 2
 0 <= assign_12_5 <= 2
 0 <= assign_12_6 <= 2
 0 <= assign_12_7 <= 2
 0 <= assign_12_none <= 2
 0 <= assign_13_0 <= 2
 0 <= assign_13_1 <= 2
 0 <= assign_13_2 <= 2
 0 <= assign_13_3 <= 2
 0 <= assign_13_4 <= 2
 0 <= assign_13_5 <= 2
 0 <= assign_13_6 <= 2
 0 <= assign_13_7 <= 2
 0 <= assign_13_none <= 2
 0 <= assign_14_0 <= 2
 0 <= assign_14_1 <= 2
 0 <= assign_14_2 <= 2
 0 <= assign_14_3 <= 2
 0 <= assign_14_4 <= 2
 0 <= assign_14_5 <= 2
 0 <= assign_14_6 <= 2
 0 <= assign_14_7 <= 2
 0 <= assign_14_none <= 2
 0 <= assign_15_0 <= 2
 0 <= assign_15_1 <= 2
 0 <= assign_15_2 <= 2
 0 <= assign_15_3 <= 2
 0 <= assign_15_4 <= 2
 0 <= assign_15_5 <= 2
 0 <= assign_15_6 <= 2
 0 <= assign_15_7 <= 2
 0 <= assign_15_none <= 2
 0 <= assign_16_0 <= 2
 0 <= assign_16_1 <= 2
 0 <= assign_16_2 <= 2
 0 <= assign_16_3 <= 2
 0 <= assign_16_4 <= 2
 0 <= assign_16_5 <= 2
 0 <= assign_16_6 <= 2
 0 <= assign_16_7 <= 2
 0 <= assign_16_none <= 2
 0 <= assign_17_0 <= 2
 0 <= assign_17_1 <= 2
 0 <= assign_17_2 <= 2
 0 <= assign_17_3 <= 2
 0 <= assign_17_4 <= 2
 0 <= assign_17_5 <= 2
 0 <= assign_17_6 <= 2
 0 <= assign_17_7 <= 2
 0 <= assign_17_none <= 2
 0 <= assign_18_0 <= 2
 0 <= assign_18_1 <= 2
 0 <= assign_18_2 <= 2
 0 <= assign_18_3 <= 2
 0 <= assign_18_4 <= 2
 0 <= assign_18_5 <= 2
 0 <= assign_18_6 <= 2
 0 <= assign_18_7 <= 2
 0 <= assign_18_none <= 2
 0 <= assign_19_0 <= 2
 0 <= assign_19_1 <= 2
 0 <= assign_19_2 <= 2
 0 <= assign_19_3 <= 2
 0 <= assign_19_4 <= 2
 0 <= assign_19_5 <= 2
 0 <= assign_19_6 <= 2
 0 <= assign_19_7 <= 2
 0 <= assign_19_none <= 2
 0 <= assign_20_0 <= 2
 0 <= assign_20_1 <= 2
 0 <= assign_20_2 <= 2
 0 <= assign_20_3 <= 2
 0 <= assign_20_4 <= 2
 0 <= assign_20_5 <= 2
 0 <= assign_20_6 <= 2
 0 <= assign_20_7 <= 2
 0 <= assign_20_none <= 2
 0 <= assign_21_0 <= 2
 0 <= assign_21_1 <= 2
 0 <= assign_21_2 <= 2
 0 <= assign_21_3 <= 2
 0 <= assign_21_4 <= 2
 0 <= assign_21_5 <= 2
 0 <= assign_21_6 <= 2
 0 <= assign_21_7 <= 2
 0 <= assign_21_none <= 2
 0 <= assign_22_0 <= 2
 0 <= assign_22_1 <= 2
 0 <= assign_22_2 <= 2
 0 <= assign_22_3 <= 2
 0 <= assign_22_4 <= 2
 0 <= assign_22_5 <= 2
 0 <= assign_22_6 <= 2
 0 <= assign_22_7 <= 2
 0 <= assign_22_none <= 2
 0 <= assign_23_0 <= 2
 0 <= assign_23_1 <= 2
 0 <= assign_23_2 <= 2
 0 <= assign_23_3 <= 2
 0 <= assign_23_4 <= 2
 0 <= assign_23_5 <= 2
 0 <= assign_23_6 <= 2
 0 <= assign_23_7 <= 2
 0 <= assign_23_none <= 2
 0 <= assign_24_0 <= 2
 0 <= assign_24_1 <= 2
 0 <= assign_24_2 <= 2
 0 <= assign_24_3 <= 2
 0 <= assign_24_4 <= 2
 0 <= assign_24_5 <= 2
 0 <= assign_24_6 <= 2
 0 <= assign_24_7 <= 2
 0 <= assign_24_none <= 2
 0 <= assign_25_0 <= 2
 0 <= assign_25_1 <= 2
 0 <= assign_25_2 <= 2
 0 <= assign_25_3 <= 2
 0 <= assign_25_4 <= 2
 0 <= assign_25_5 <= 2
 0 <= assign_25_6 <= 2
 0 <= assign_25_7 <= 2
 0 <= assign_25_none <= 2
 0 <= assign_26_0 <= 2
 0 <= assign_26_1 <= 2
 0 <= assign_26_2 <= 2
 0 <= assign_26_3 <= 2
 0 <= assign_26_4 <= 2
 0 <= assign_26_5 <= 2
 0 <= assign_26_6 <= 2
 0 <= assign_26_7 <= 2
 0 <= assign_26_none <= 2
 0 <= assign_27_0 <= 2
 0 <= assign_27_1 <= 2
 0 <= assign_27_2 <= 2
 0 <= assign_27_3 <= 2
 0 <= assign_27_4 <= 2
 0 <= assign_27_5 <= 2
 0 <= assign_27_6 <= 2
 0 <= assign_27_7 <= 2
 0 <= assign_27_none <= 2
 0 <= assign_28_0 <= 2
 0 <= assign_28_1 <= 2
 0 <= assign_28_2 <= 2
 0 <= assign_28_3 <= 2
 0 <= assign_28_4 <= 2
 0 <= assign_28_5 <= 2
 0 <= assign_28_6 <= 2
 0 <= assign_28_7 <= 2
 0 <= assign_28_none <= 2
 0 <= assign_29_0 <= 2
 0 <= assign_29_1 <= 2
 0 <= assign_29_2 <= 2
 0 <= assign_29_3 <= 2
 0 <= assign_29_4 <= 2
 0 <= assign_29_5 <= 2
 0 <= assign_29_6 <= 2
 0 <= assign_29_7 <= 2
 0 <= assign_29_none <= 2
 0 <= assign_30_0 <= 2
 0 <= assign_30_1 <= 2
 0 <= assign_30_2 <= 2
 0 <= assign_30_3 <= 2
 0 <= assign_30_4 <= 2
 0 <= assign_30_5 <= 2
 0 <= assign_30_6 <= 2
 0 <= assign_30_7 <= 2
 0 <= assign_30_none <= 2
 0 <= assign_31_0 <= 2
 0 <= assign_31_1 <= 2
 0 <= assign_31_2 <= 2
 0 <= assign_31_3 <= 2
 0 <= assign_31_4 <= 2
 0 <= assign_31_5 <= 2
 0 <= assign_31_6 <= 2
 0 <= assign_31_7 <= 2
 0 <= assign_31_none <= 2
 0 <= assign_32_0 <= 2
 0 <= assign_32_1 <= 2
 0 <= assign_32_2 <= 2
 0 <= assign_32_3 <= 2
 0 <= assign_32_4 <= 2
 0 <= assign_32_5 <= 2
 0 <= assign_32_6 <= 2
 0 <= assign_32_7 <= 2
 0 <= assign_32_none <= 2
 0 <= assign_33_0 <= 2
 0 <= assign_33_1 <= 2
 0 <= assign_33_2 <= 2
 0 <= assign_33_3 <= 2
 0 <= assign_33_4 <= 2
 0 <= assign_33_5 <= 2
 0 <= assign_33_6 <= 2
 0 <= assign_33_7 <= 2
 0 <= assign_33_none <= 2
 0 <= assign_34_0 <= 2
 0 <= assign_34_1 <= 2
 0 <= assign_34_2 <= 2
 0 <= assign_34_3 <= 2
 0 <= assign_34_4 <= 2
 0 <= assign_34_5 <= 2
 0 <= assign_34_6 <= 2
 0 <= assign_34_7 <= 2
 0 <= assign_34_none <= 2
 0 <= assign_35_0 <= 2
 0 <= assign_35_1 <= 2
 0 <= assign_35_2 <= 2
 0 <= assign_35_3 <= 2
 0 <= assign_35_4 <= 2
 0 <= assign_35_5 <= 2
 0 <= assign_35_6 <= 2
 0 <= assign_35_7 <= 2
 0 <= assign_35_none <= 2
 0 <= assign_36_0 <= 2
 0 <= assign_36_1 <= 2
 0 <= assign_36_2 <= 2
 0 <= assign_36_3 <= 2
 0 <= assign_36_4 <= 2
 0 <= assign_36_5 <= 2
 0 <= assign_36_6 <= 2
 0 <= assign_36_7 <= 2
 0 <= assign_36_none <= 2
 0 <= assign_37_0 <= 2
 0 <= assign_37_1 <= 2
 0 <= assign_37_2 <= 2
 0 <= assign_37_3 <= 2
 0 <= assign_37_4 <= 2
 0 <= assign_37_5 <= 2
 0 <= assign_37_6 <= 2
 0 <= assign_37_7 <= 2
 0 <= assign_37_none <= 2
 0 <= assign_38_0 <= 2
 0 <= assign_38_1 <= 2
 0 <= assign_38_2 <= 2
 0 <= assign_38_3 <= 2
 0 <= assign_38_4 <= 2
 0 <= assign_38_5 <= 2
 0 <= assign_38_6 <= 2
 0 <= assign_38_7 <= 2
 0 <= assign_38_none <= 2
 0 <= assign_39_0 <= 2
 0 <= assign_39_1 <= 2
 0 <= assign_39_2 <= 2
 0 <= assign_39_3 <= 2
 0 <= assign_39_4 <= 2
 0 <= assign_39_5 <= 2
 0 <= assign_39_6 <= 2
 0 <= assign_39_7 <= 2
 0 <= assign_39_none <= 2
 0 <= assign_40_0 <= 2
 0 <= assign_40_1 <= 2
 0 <= assign_40_2 <= 2
 0 <= assign_40_3 <= 2
 0 <= assign_40_4 <= 2
 0 <= assign_40_5 <= 2
 0 <= assign_40_6 <= 2
 0 <= assign_40_7 <= 2
 0 <= assign_40_none <= 2
 0 <= assign_41_0 <= 2
 0 <= assign_41_1 <= 2
 0 <= assign_41_2 <= 2
 0 <= assign_41_3 <= 2
 0 <= assign_41_4 <= 2
 0 <= assign_41_5 <= 2
 0 <= assign_41_6 <= 2
 0 <= assign_41_7 <= 2
 0 <= assign_41_none <= 2
 0 <= assign_42_0 <= 2
 0 <= assign_42_1 <= 2
 0 <= assign_42_2 <= 2
 0 <= assign_42_3 <= 2
 0 <= assign_42_4 <= 2
 0 <= assign_42_5 <= 2
 0 <= assign_42_6 <= 2
 0 <= assign_42_7 <= 2
 0 <= assign_42_none <= 2
 0 <= assign_43_0 <= 2
 0 <= assign_43_1 <= 2
 0 <= assign_43_2 <= 2
 0 <= assign_43_3 <= 2
 0 <= assign_43_4 <= 2
 0 <= assign_43_5 <= 2
 0 <= assign_43_6 <= 2
 0 <= assign_43_7 <= 2
 0 <= assign_43_none <= 2
 0 <= assign_44_0 <= 2
 0 <= assign_44_1 <= 2
 0 <= assign_44_2 <= 2
 0 <= assign_44_3 <= 2
 0 <= assign_44_4 <= 2
 0 <= assign_44_5 <= 2
 0 <= assign_44_6 <= 2
 0 <= assign_44_7 <= 2
 0 <= assign_44_none <= 2
 0 <= assign_45_0 <= 2
 0 <= assign_45_1 <= 2
 0 <= assign_45_2 <= 2
 0 <= assign_45_3 <= 2
 0 <= assign_45_4 <= 2
 0 <= assign_45_5 <= 2
 0 <= assign_45_6 <= 2
 0 <= assign_45_7 <= 2
 0 <= assign_45_none <= 2
 0 <= assign_46_0 <= 2
 0 <= assign_46_1 <= 2
 0 <= assign_46_2 <= 2
 0 <= assign_46_3 <= 2
 0 <= assign_46_4 <= 2
 0 <= assign_46_5 <= 2
 0 <= assign_46_6 <= 2
 0 <= assign_46_7 <= 2
 0 <= assign_46_none <= 2
 0 <= assign_47_0 <= 2
 0 <= assign_47_1 <= 2
 0 <= assign_47_2 <= 2
 0 <= assign_47_3 <= 2
 0 <= assign_47_4 <= 2
 0 <= assign_47_5 <= 2
 0 <= assign_47_6 <= 2
 0 <= assign_47_7 <= 2
 0 <= assign_47_none <= 2
 0 <= assign_48_0 <= 2
 0 <= assign_48_1 <= 2
 0 <= assign_48_2 <= 2
 0 <= assign_48_3 <= 2
 0 <= assign_48_4 <= 2
 0 <= assign_48_5 <= 2
 0 <= assign_48_6 <= 2
 0 <= assign_48_7 <= 2
 0 <= assign_48_none <= 2
 0 <= assign_49_0 <= 2
 0 <= assign_49_1 <= 2
 0 <= assign_49_2 <= 2
 0 <= assign_49_3 <= 2
 0 <= assign_49_4 <= 2
 0 <= assign_49_5 <= 2
 0 <= assign_49_6 <= 2
 0 <= assign_49_7 <= 2
 0 <= assign_49_none <= 2
 0 <= assign_50_0 <= 2
 0 <= assign_50_1 <= 2
 0 <= assign_50_2 <= 2
 0 <= assign_50_3 <= 2
 0 <= assign_50_4 <= 2
 0 <= assign_50_5 <= 2
 0 <= assign_50_6 <= 2
 0 <= assign_50_7 <= 2
 0 <= assign_50_none <= 2
 0 <= assign_51_0 <= 2
 0 <= assign_51_1 <= 2
 0 <= assign_51_2 <= 2
 0 <= assign_51_3 <= 2
 0 <= assign_51_4 <= 2
 0 <= assign_51_5 <= 2
 0 <= assign_51_6 <= 2
 0 <= assign_51_7 <= 2
 0 <= assign_51_none <= 2
 0 <= assign_52_0 <= 2
 0 <= assign_52_1 <= 2
 0 <= assign_52_2 <= 2
 0 <= assign_52_3 <= 2
 0 <= assign_52_4 <= 2
 0 <= assign_52_5 <= 2
 0 <= assign_52_6 <= 2
 0 <= assign_52_7 <= 2
 0 <= assign_52_none <= 2
 0 <= assign_53_0 <= 2
 0 <= assign_53_1 <= 2
 0 <= assign_53_2 <= 2
 0 <= assign_53_3 <= 2
 0 <= assign_53_4 <= 2
 0 <= assign_53_5 <= 2
 0 <= assign_53_6 <= 2
 0 <= assign_53_7 <= 2
 0 <= assign_53_none <= 2
 0 <= assign_54_0 <= 2
 0 <= assign_54_1 <= 2
 0 <= assign_54_2 <= 2
 0 <= assign_54_3 <= 2
 0 <= assign_54_4 <= 2
 0 <= assign_54_5 <= 2
 0 <= assign_54_6 <= 2
 0 <= assign_54_7 <= 2
 0 <= assign_54_none <= 2
 0 <= assign_55_0 <= 2
 0 <= assign_55_1 <= 2
 0 <= assign_55_2 <= 2
 0 <= assign_55_3 <= 2
 0 <= assign_55_4 <= 2
 0 <= assign_55_5 <= 2
 0 <= assign_55_6 <= 2
 0 <= assign_55_7 <= 2
 0 <= assign_55_none <= 2
Generals
 assign_0_0 assign_0_1 assign_0_2 assign_0_3 assign_0_4 assign_0_5 assign_0_6 assign_0_7 assign_0_none
 assign_1_0 assign_1_1 assign_1_2 assign_1_3 assign_1_4 assign_1_5 assign_1_6 assign_1_7 assign_1_none
 assign_2_0 assign_2_1 assign_2_2 assign_2_3 assign_2_4 assign_2_5 assign_2_6 assign_2_7 assign_2_none
 assign_3_0 assign_3_1 assign_3_2 assign_3_3 assign_3_4 assign_3_5 assign_3_6 assign_3_7 assign_3_none
 assign_4_0 assign_4_1 assign_4_2 assign_4_3 assign_4_4 assign_4_5 assign_4_6 assign_4_7 assign_4_none
 assign_5_0 assign_5_1 assign_5_2 assign_5_3 assign_5_4 assign_5_5 assign_5_6 assign_5_7 assign_5_none
 assign_6_0 assign_6_1 assign_6_2 assign_6_3 assign_6_4 assign_6_5 assign_6_6 assign_6_7 assign_6_none
 assign_7_0 assign_7_1 assign_7_2 assign_7_3 assign_7_4 assign_7_5 assign_7_6 assign_7_7 assign_7_none
 assign_8_0 assign_8_1 assign_8_2 assign_8_3 assign_8_4 assign_8_5 assign_8_6 assign_8_7 assign_8_none
 assign_9_0 assign_9_1 assign_9_2 assign_9_3 assign_9_4 assign_9_5 assign_9_6 assign_9_7 assign_9_none
 assign_10_0 assign_10_1 assign_10_2 assign_10_3 assign_10_4 assign_10_5 assign_10_6 assign_10_7 assign_10_none
 assign_11_0 assign_11_1 assign_11_2 assign_11_3 assign_11_4 assign_11_5 assign_11_6 assign_11_7 assign_11_none
 assign_12_0 assign_12_1 assign_12_2 assign_12_3 assign_12_4 assign_12_5 assign_12_6 assign_12_7 assign_12_none
 assign_13_0 assign_13_1 assign_13_2 assign_13_3 assign_13_4 assign_13_5 assign_13_6 assign_13_7 assign_13_none
 assign_14_0 assign_14_1 assign_14_2 assign_14_3 assign_14_4 assign_14_5 assign_14_6 assign_14_7 assign_14_none
 assign_15_0 assign_15_1 assign_15_2 assign_15_3 assign_15_4 assign_15_5 assign_15_6 assign_15_7 assign_15_none
 assign_16_0 assign_16_1 assign_16_2 assign_16_3 assign_16_4 assign_16_5 assign_16_6 assign_16_7 assign_16_none
 assign_17_0 assign_17_1 assign_17_2 assign_17_3 assign_17_4 assign_17_5 assign_17_6 assign_17_7 assign_17_none
 assign_18_0 assign_18_1 assign_18_2 assign_18_3 assign_18_4 assign_18_5 assign_18_6 assign_18_7 assign_18_none
 assign_19_0 assign_19_1 assign_19_2 assign_19_3 assign_19_4 assign_19_5 assign_19_6 assign_19_7 assign_19_none
 assign_20_0 assign_20_1 assign_20_2 assign_20_3 assign_20_4 assign_20_5 assign_20_6 assign_20_7 assign_20_none
 assign_21_0 assign_21_1 assign_21_2 assign_21_3 assign_21_4 assign_21_5 assign_21_6 assign_21_7 assign_21_none
 assign_22_0 assign_22_1 assign_22_2 assign_22_3 assign_22_4 assign_22_5 assign_22_6 assign_22_7 assign_22_none
 assign_23_0 assign_23_1 assign_23_2 assign_23_3 assign_23_4 assign_23_5 assign_23_6 assign_23_7 assign_23_none
 assign_24_0 assign_24_1 assign_24_2 assign_24_3 assign_24_4 assign_24_5 assign_24_6 assign_24_7 assign_24_none
 assign_25_0 assign_25_1 assign_25_2 assign_25_3 assign_25_4 assign_25_5 assign_25_6 assign_25_7 assign_25_none
 assign_26_0 assign_26_1 assign_26_2 assign_26_3 assign_26_4 assign_26_5 assign_26_6 assign_26_7 assign_26_none
 assign_27_0 assign_27_1 assign_27_2 assign_27_3 assign_27_4 assign_27_5 assign_27_6 assign_27_7 assign_27_none
 assign_28_0 assign_28_1 assign_28_2 assign_28_3 assign_28_4 assign_28_5 assign_28_6 assign_28_7 assign_28_none
 assign_29_0 assign_29_1 assign_29_2 assign_29_3 assign_29_4 assign_29_5 assign_29_6 assign_29_7 assign_29_none
 assign_30_0 assign_30_1 assign_30_2 assign_30_3 assign_30_4 assign_30_5 assign_30_6 assign_30_7 assign_30_none
 assign_31_0 assign_31_1 assign_31_2 assign_31_3 assign_31_4 assign_31_5 assign_31_6 assign_31_7 assign_31_none
 assign_32_0 assign_32_1 assign_32_2 assign_32_3 assign_32_4 assign_32_5 assign_32_6 assign_32_7 assign_32_none
 assign_33_0 assign_33_1 assign_33_2 assign_33_3 assign_33_4 assign_33_5 assign_33_6 assign_33_7 assign_33_none
 assign_34_0 assign_34_1 assign_34_2 assign_34_3 assign_34_4 assign_34_5 assign_34_6 assign_34_7 assign_34_none
 assign_35_0 assign_35_1 assign_35_2 assign_35_3 assign_35_4 assign_35_5 assign_35_6 assign_35_7 assign_35_none
 assign_36_0 assign_36_1 assign_36_2 assign_36_3 assign_36_4 assign_36_5 assign_36_6 assign_36_7 assign_36_none
 assign_37_0 assign_37_1 assign_37_2 assign_37_3 assign_37_4 assign_37_5 assign_37_6 assign_37_7 assign_37_none
 assign_38_0 assign_38_1 assign_38_2 assign_38_3 assign_38_4 assign_38_5 assign_38_6 assign_38_7 assign_38_none
 assign_39_0 assign_39_1 assign_39_2 assign_39_3 assign_39_4 assign_39_5 assign_39_6 assign_39_7 assign_39_none
 assign_40_0 assign_40_1 assign_40_2 assign_40_3 assign_40_4 assign_40_5 assign_40_6 assign_40_7 assign_40_none
 assign_41_0 assign_41_1 assign_41_2 assign_41_3 assign_41_4 assign_41_5 assign_41_6 assign_41_7 assign_41_none
 assign_42_0 assign_42_1 assign_42_2 assign_42_3 assign_42_4 assign_42_5 assign_42_6 assign_42_7 assign_42_none
 assign_43_0 assign_43_1 assign_43_2 assign_43_3 assign_43_4 assign_43_5 assign_43_6 assign_43_7 assign_43_none
 assign_44_0 assign_44_1 assign_44_2 assign_44_3 assign_44_4 assign_44_5 assign_44_6 assign_44_7 assign_44_none
 assign_45_0 assign_45_1 assign_45_2 assign_45_3 assign_45_4 assign_45_5 assign_45_6 assign_45_7 assign_45_none
 assign_46_0 assign_46_1 assign_46_2 assign_46_3 assign_46_4 assign_46_5 assign_46_6 assign_46_7 assign_46_none
 assign_47_0 assign_47_1 assign_47_2 assign_47_3 assign_47_4 assign_47_5 assign_47_6 assign_47_7 assign_47_none
 assign_48_0 assign_48_1 assign_48_2 assign_48_3 assign_48_4 assign_48_5 assign_48_6 assign_48_7 assign_48_none
 assign_49_0 assign_49_1 assign_49_2 assign_49_3 assign_49_4 assign_49_5 assign_49_6 assign_49_7 assign_49_none
 assign_50_0 assign_50_1 assign_50_2 assign_50_3 assign_50_4 assign_50_5 assign_50_6 assign_50_7 assign_50_none
 assign_51_0 assign_51_1 assign_51_2 assign_51_3 assign_51_4 assign_51_5 assign_51_6 assign_51_7 assign_51_none
 assign_52_0 assign_52_1 assign_52_2 assign_52_3 assign_52_4 assign_52_5 assign_52_6 assign_52_7 assign_52_none
 assign_53_0 assign_53_1 assign_53_2 assign_53_3 assign_53_4 assign_53_5 assign_53_6 assign_53_7 assign_53_none
 assign_54_0 assign_54_1 assign_54_2 assign_54_3 assign_54_4 assign_54_5 assign_54_6 assign_54_7 assign_54_none
 assign_55_0 assign_55_1 assign_55_2 assign_55_3 assign_55_4 assign_55_5 assign_55_6 assign_55_7 assign_55_none
End
